********************************************************************************
Field Output Report, written Fri Feb 15 16:23:45 2019

Source 1
---------

   ODB: C:/Scratch/A320-19.odb
   Step: Jam1
   Frame: Increment      1: Step Time =    1.000

Loc 1 : Element nodal  values at shell < ALUMINIUM > < 5 section points > from source 1 : SNEG, (fraction = -1.0) ( Average criteria = 75%, Not averaged across region boundaries )
Loc 2 : Element nodal  values at shell < ALUMINIUM > < 5 section points > from source 1 : SPOS, (fraction = 1.0) ( Average criteria = 75%, Not averaged across region boundaries )

Output sorted by column "Node Label".

Field Output reported at element nodes for region: A320-1.Region_1
   Computation algorithm: EXTRAPOLATE_COMPUTE_AVERAGE
   Averaged at nodes
   Averaging regions: ODB_REGIONS

   Element Label      Node Label         S.Mises         S.Mises
                                          @Loc 1          @Loc 2
-----------------------------------------------------------------
            2271               3     4.79861E-03     5.90615E-03
             874               3     4.79861E-03     5.90615E-03
            2325               4     126.456E-06     275.447E-06
            3976               6     77.4686E-03     79.6753E-03
            1756               6     77.4686E-03     79.6753E-03
            4066               8     91.8368E-03     95.6166E-03
            3410               8     91.8368E-03     95.6166E-03
            5864              10     79.8049E-03     81.1500E-03
            3500              10     79.8049E-03     81.1500E-03
            5084              15     2.51822E-03     3.79167E-03
            6566              15     2.51822E-03     3.79167E-03
            2288              16     1.77318E-03     3.25781E-03
             857              16     1.77318E-03     3.25781E-03
            2342              19     376.823E-06     444.654E-06
            1739              20     44.5394E-03     44.4053E-03
            3959              20     44.5394E-03     44.4053E-03
            4049              23     39.9301E-03     66.1608E-03
            3393              23     39.9301E-03     66.1608E-03
            5847              24     12.5622E-03     12.3443E-03
            3483              24     12.5622E-03     12.3443E-03
            5067              26     4.13749E-03     4.20780E-03
            6549              26     4.13749E-03     4.20780E-03
            5174              27     168.150E-06     321.065E-06
            5157              28     402.706E-06     490.746E-06
            2289              38     479.046E-06     530.603E-06
            2271              38     479.046E-06     530.603E-06
            2289              39     227.867E-06     234.562E-06
            2307              39     227.867E-06     234.562E-06
            2307              40     89.9879E-06     209.381E-06
            2325              40     89.9879E-06     209.381E-06
            1738             102     75.3786E-03     75.7935E-03
            1756             102     75.3786E-03     75.7935E-03
            1738             103     74.8641E-03     75.1378E-03
            1720             103     74.8641E-03     75.1378E-03
            1720             104     73.7175E-03     75.2619E-03
            1702             104     73.7175E-03     75.2619E-03
            1702             105     73.0332E-03     73.6702E-03
            1684             105     73.0332E-03     73.6702E-03
            1684             106     71.6768E-03     72.8233E-03
            1666             106     71.6768E-03     72.8233E-03
            1666             107     70.7381E-03     71.2460E-03
            1648             107     70.7381E-03     71.2460E-03
            1648             108     69.2395E-03     70.1657E-03
            1630             108     69.2395E-03     70.1657E-03
            1630             109     67.7616E-03     67.8411E-03
            1612             109     67.7616E-03     67.8411E-03
            1612             110     65.6883E-03     64.7497E-03
            1594             110     65.6883E-03     64.7497E-03
            1576             111     64.6756E-03     66.3657E-03
            1594             111     64.6756E-03     66.3657E-03
            1558             112     65.8600E-03     66.4096E-03
            1576             112     65.8600E-03     66.4096E-03
            1558             113     64.8757E-03     65.0923E-03
            1540             113     64.8757E-03     65.0923E-03
            1540             114     63.3275E-03     64.6272E-03
            1522             114     63.3275E-03     64.6272E-03
            1504             115     62.1884E-03     62.7806E-03
            1522             115     62.1884E-03     62.7806E-03
            1504             116     60.6515E-03     61.4861E-03
            1486             116     60.6515E-03     61.4861E-03
            1486             117     59.2907E-03     59.8774E-03
            1468             117     59.2907E-03     59.8774E-03
            1468             118     57.7033E-03     58.1769E-03
            1450             118     57.7033E-03     58.1769E-03
            1450             119     56.0805E-03     56.5545E-03
            1432             119     56.0805E-03     56.5545E-03
            1414             120     54.1578E-03     54.1936E-03
            1432             120     54.1578E-03     54.1936E-03
            1396             121     51.8171E-03     50.8037E-03
            1414             121     51.8171E-03     50.8037E-03
            1396             122     51.1478E-03     52.6013E-03
            1378             122     51.1478E-03     52.6013E-03
            1378             123     52.3457E-03     53.0721E-03
            1360             123     52.3457E-03     53.0721E-03
            1360             124     50.8926E-03     51.0010E-03
            1342             124     50.8926E-03     51.0010E-03
            1324             125     48.9097E-03     49.9703E-03
            1342             125     48.9097E-03     49.9703E-03
            1324             126     47.4079E-03     47.8154E-03
            1306             126     47.4079E-03     47.8154E-03
            1306             127     45.5452E-03     46.1669E-03
            1288             127     45.5452E-03     46.1669E-03
            1270             128     43.9002E-03     44.2412E-03
            1288             128     43.9002E-03     44.2412E-03
            1252             129     42.0083E-03     42.2954E-03
            1270             129     42.0083E-03     42.2954E-03
            1252             130     40.1457E-03     40.2829E-03
            1234             130     40.1457E-03     40.2829E-03
            1216             131     37.9106E-03     37.8339E-03
            1234             131     37.9106E-03     37.8339E-03
            1198             132     35.2780E-03     34.2988E-03
            1216             132     35.2780E-03     34.2988E-03
            1180             133     35.0562E-03     36.2692E-03
            1198             133     35.0562E-03     36.2692E-03
            1180             134     36.3552E-03     37.2631E-03
            1162             134     36.3552E-03     37.2631E-03
            1144             135     34.5336E-03     34.4843E-03
            1162             135     34.5336E-03     34.4843E-03
            1126             136     32.1988E-03     32.9341E-03
            1144             136     32.1988E-03     32.9341E-03
            1108             137     30.4210E-03     30.5896E-03
            1126             137     30.4210E-03     30.5896E-03
            1090             138     28.3501E-03     28.6914E-03
            1108             138     28.3501E-03     28.6914E-03
            1090             139     26.5528E-03     26.5922E-03
            1072             139     26.5528E-03     26.5922E-03
            1054             140     24.5421E-03     24.5788E-03
            1072             140     24.5421E-03     24.5788E-03
            1036             141     22.6466E-03     22.3876E-03
            1054             141     22.6466E-03     22.3876E-03
            1018             142     20.4485E-03     20.1339E-03
            1036             142     20.4485E-03     20.1339E-03
            1000             143     17.7398E-03     17.1344E-03
            1018             143     17.7398E-03     17.1344E-03
            1000             144     16.9074E-03     18.1142E-03
             982             144     16.9074E-03     18.1142E-03
             982             145     17.2872E-03     18.3068E-03
             964             145     17.2872E-03     18.3068E-03
             964             146     15.5370E-03     15.0781E-03
             946             146     15.5370E-03     15.0781E-03
             928             147     13.4002E-03     13.4531E-03
             946             147     13.4002E-03     13.4531E-03
             910             148     12.0606E-03     11.6122E-03
             928             148     12.0606E-03     11.6122E-03
             892             149     10.9809E-03     10.4032E-03
             910             149     10.9809E-03     10.4032E-03
             892             150     9.83527E-03     10.5423E-03
             874             150     9.83527E-03     10.5423E-03
            4048             162     90.1266E-03     88.9476E-03
            4066             162     90.1266E-03     88.9476E-03
            4030             163     88.0582E-03     87.9836E-03
            4048             163     88.0582E-03     87.9836E-03
            4030             164     85.1680E-03     86.1019E-03
            4012             164     85.1680E-03     86.1019E-03
            3994             165     81.9387E-03     82.4636E-03
            4012             165     81.9387E-03     82.4636E-03
            3994             166     79.6386E-03     82.0799E-03
            3976             166     79.6386E-03     82.0799E-03
            3500             178     83.7622E-03     83.5266E-03
            3482             178     83.7622E-03     83.5266E-03
            3464             179     87.6998E-03     87.4097E-03
            3482             179     87.6998E-03     87.4097E-03
            3464             180     90.1175E-03     92.2904E-03
            3446             180     90.1175E-03     92.2904E-03
            3446             181     93.3665E-03     92.8358E-03
            3428             181     93.3665E-03     92.8358E-03
            3410             182     94.9319E-03     95.4430E-03
            3428             182     94.9319E-03     95.4430E-03
            6566             250     2.30659E-03     4.12310E-03
            6548             250     2.30659E-03     4.12310E-03
            6530             251     3.06116E-03     3.87746E-03
            6548             251     3.06116E-03     3.87746E-03
            6512             252     8.46760E-03     8.12053E-03
            6530             252     8.46760E-03     8.12053E-03
            6512             253     13.0896E-03     14.0801E-03
            6494             253     13.0896E-03     14.0801E-03
            6476             254     11.7476E-03     12.2639E-03
            6494             254     11.7476E-03     12.2639E-03
            6458             255     10.3825E-03     9.54574E-03
            6476             255     10.3825E-03     9.54574E-03
            6458             256     14.4150E-03     14.4678E-03
            6440             256     14.4150E-03     14.4678E-03
            6440             257     18.3217E-03     18.2328E-03
            6422             257     18.3217E-03     18.2328E-03
            6422             258     21.5296E-03     21.6909E-03
            6404             258     21.5296E-03     21.6909E-03
            6386             259     24.7323E-03     24.8159E-03
            6404             259     24.7323E-03     24.8159E-03
            6386             260     27.6046E-03     27.9838E-03
            6368             260     27.6046E-03     27.9838E-03
            6368             261     30.7573E-03     30.8800E-03
            6350             261     30.7573E-03     30.8800E-03
            6332             262     33.6511E-03     34.3872E-03
            6350             262     33.6511E-03     34.3872E-03
            6314             263     37.3392E-03     37.1741E-03
            6332             263     37.3392E-03     37.1741E-03
            6314             264     40.6197E-03     41.3543E-03
            6296             264     40.6197E-03     41.3543E-03
            6278             265     37.8575E-03     39.2303E-03
            6296             265     37.8575E-03     39.2303E-03
            6260             266     36.5407E-03     35.6228E-03
            6278             266     36.5407E-03     35.6228E-03
            6242             267     40.4174E-03     40.4202E-03
            6260             267     40.4174E-03     40.4202E-03
            6242             268     43.9788E-03     44.3517E-03
            6224             268     43.9788E-03     44.3517E-03
            6206             269     47.0884E-03     47.3033E-03
            6224             269     47.0884E-03     47.3033E-03
            6206             270     49.8345E-03     50.3259E-03
            6188             270     49.8345E-03     50.3259E-03
            6170             271     52.6565E-03     52.9899E-03
            6188             271     52.6565E-03     52.9899E-03
            6152             272     55.0707E-03     55.7728E-03
            6170             272     55.0707E-03     55.7728E-03
            6152             273     57.8528E-03     58.1487E-03
            6134             273     57.8528E-03     58.1487E-03
            6116             274     60.2169E-03     61.3187E-03
            6134             274     60.2169E-03     61.3187E-03
            6116             275     63.3742E-03     63.1974E-03
            6098             275     63.3742E-03     63.1974E-03
            6098             276     65.9226E-03     66.4611E-03
            6080             276     65.9226E-03     66.4611E-03
            6080             277     62.7342E-03     64.9108E-03
            6062             277     62.7342E-03     64.9108E-03
            6044             278     62.0151E-03     61.0959E-03
            6062             278     62.0151E-03     61.0959E-03
            6044             279     65.7760E-03     65.8063E-03
            6026             279     65.7760E-03     65.8063E-03
            6026             280     69.0854E-03     69.7942E-03
            6008             280     69.0854E-03     69.7942E-03
            5990             281     71.9283E-03     72.4259E-03
            6008             281     71.9283E-03     72.4259E-03
            5972             282     74.4998E-03     75.1150E-03
            5990             282     74.4998E-03     75.1150E-03
            5954             283     76.7599E-03     77.5996E-03
            5972             283     76.7599E-03     77.5996E-03
            5954             284     79.1821E-03     79.6338E-03
            5936             284     79.1821E-03     79.6338E-03
            5936             285     81.1417E-03     82.4615E-03
            5918             285     81.1417E-03     82.4615E-03
            5918             286     83.8068E-03     83.6260E-03
            5900             286     83.8068E-03     83.6260E-03
            5882             287     85.7394E-03     86.0631E-03
            5900             287     85.7394E-03     86.0631E-03
            5882             288     81.7732E-03     84.6313E-03
            5864             288     81.7732E-03     84.6313E-03
            2324             326     412.427E-06     413.596E-06
            2342             326     412.427E-06     413.596E-06
            2324             327     444.605E-06     375.120E-06
            2306             327     444.605E-06     375.120E-06
            2306             328     398.567E-06     396.516E-06
            2288             328     398.567E-06     396.516E-06
             857             329     1.57097E-03     2.33819E-03
            2287             329     1.57097E-03     2.33819E-03
            2288             329     1.57097E-03     2.33819E-03
             858             329     1.57097E-03     2.33819E-03
             859             330     1.51055E-03     1.26431E-03
            2287             330     1.51055E-03     1.26431E-03
            2286             330     1.51055E-03     1.26431E-03
             858             330     1.51055E-03     1.26431E-03
            2285             331     1.78906E-03     1.18619E-03
            2286             331     1.78906E-03     1.18619E-03
             860             331     1.78906E-03     1.18619E-03
             859             331     1.78906E-03     1.18619E-03
            2285             332     2.02346E-03     1.33818E-03
            2284             332     2.02346E-03     1.33818E-03
             861             332     2.02346E-03     1.33818E-03
             860             332     2.02346E-03     1.33818E-03
            2283             333     2.21013E-03     1.49556E-03
            2284             333     2.21013E-03     1.49556E-03
             862             333     2.21013E-03     1.49556E-03
             861             333     2.21013E-03     1.49556E-03
             863             334     2.37316E-03     1.65102E-03
             862             334     2.37316E-03     1.65102E-03
            2283             334     2.37316E-03     1.65102E-03
            2282             334     2.37316E-03     1.65102E-03
             864             335     2.51451E-03     1.79219E-03
             863             335     2.51451E-03     1.79219E-03
            2282             335     2.51451E-03     1.79219E-03
            2281             335     2.51451E-03     1.79219E-03
            2280             336     2.64983E-03     1.92622E-03
             864             336     2.64983E-03     1.92622E-03
            2281             336     2.64983E-03     1.92622E-03
             865             336     2.64983E-03     1.92622E-03
             866             337     2.77948E-03     2.05984E-03
            2279             337     2.77948E-03     2.05984E-03
            2280             337     2.77948E-03     2.05984E-03
             865             337     2.77948E-03     2.05984E-03
            2279             338     2.90897E-03     2.18904E-03
             866             338     2.90897E-03     2.18904E-03
            2278             338     2.90897E-03     2.18904E-03
             867             338     2.90897E-03     2.18904E-03
             868             339     3.03017E-03     2.31508E-03
            2277             339     3.03017E-03     2.31508E-03
             867             339     3.03017E-03     2.31508E-03
            2278             339     3.03017E-03     2.31508E-03
            2277             340     3.14469E-03     2.43408E-03
             869             340     3.14469E-03     2.43408E-03
            2276             340     3.14469E-03     2.43408E-03
             868             340     3.14469E-03     2.43408E-03
            2275             341     3.22236E-03     2.52441E-03
            2276             341     3.22236E-03     2.52441E-03
             869             341     3.22236E-03     2.52441E-03
             870             341     3.22236E-03     2.52441E-03
            2275             342     3.25813E-03     2.59153E-03
            2274             342     3.25813E-03     2.59153E-03
             871             342     3.25813E-03     2.59153E-03
             870             342     3.25813E-03     2.59153E-03
             872             343     3.21127E-03     2.62265E-03
            2274             343     3.21127E-03     2.62265E-03
             871             343     3.21127E-03     2.62265E-03
            2273             343     3.21127E-03     2.62265E-03
            2273             344     3.01611E-03     2.74746E-03
             873             344     3.01611E-03     2.74746E-03
             872             344     3.01611E-03     2.74746E-03
            2272             344     3.01611E-03     2.74746E-03
             874             345     3.84286E-03     4.38970E-03
            2272             345     3.84286E-03     4.38970E-03
             873             345     3.84286E-03     4.38970E-03
            2271             345     3.84286E-03     4.38970E-03
            3976             346     74.6156E-03     76.2576E-03
            1755             346     74.6156E-03     76.2576E-03
            1756             346     74.6156E-03     76.2576E-03
            3975             346     74.6156E-03     76.2576E-03
            3974             347     70.4311E-03     71.2643E-03
            3975             347     70.4311E-03     71.2643E-03
            1755             347     70.4311E-03     71.2643E-03
            1754             347     70.4311E-03     71.2643E-03
            1753             348     67.6291E-03     68.3679E-03
            3974             348     67.6291E-03     68.3679E-03
            1754             348     67.6291E-03     68.3679E-03
            3973             348     67.6291E-03     68.3679E-03
            3973             349     65.0449E-03     65.8904E-03
            3972             349     65.0449E-03     65.8904E-03
            1752             349     65.0449E-03     65.8904E-03
            1753             349     65.0449E-03     65.8904E-03
            3971             350     62.7344E-03     63.6554E-03
            3972             350     62.7344E-03     63.6554E-03
            1752             350     62.7344E-03     63.6554E-03
            1751             350     62.7344E-03     63.6554E-03
            1751             351     60.4843E-03     61.5218E-03
            3971             351     60.4843E-03     61.5218E-03
            3970             351     60.4843E-03     61.5218E-03
            1750             351     60.4843E-03     61.5218E-03
            1749             352     58.3346E-03     59.4318E-03
            3970             352     58.3346E-03     59.4318E-03
            1750             352     58.3346E-03     59.4318E-03
            3969             352     58.3346E-03     59.4318E-03
            3969             353     56.2074E-03     57.3639E-03
            3968             353     56.2074E-03     57.3639E-03
            1749             353     56.2074E-03     57.3639E-03
            1748             353     56.2074E-03     57.3639E-03
            1748             354     54.1306E-03     55.3065E-03
            3968             354     54.1306E-03     55.3065E-03
            1747             354     54.1306E-03     55.3065E-03
            3967             354     54.1306E-03     55.3065E-03
            1746             355     52.0785E-03     53.2655E-03
            1747             355     52.0785E-03     53.2655E-03
            3967             355     52.0785E-03     53.2655E-03
            3966             355     52.0785E-03     53.2655E-03
            3966             356     50.0782E-03     51.2487E-03
            1745             356     50.0782E-03     51.2487E-03
            1746             356     50.0782E-03     51.2487E-03
            3965             356     50.0782E-03     51.2487E-03
            3964             357     48.1396E-03     49.2797E-03
            3965             357     48.1396E-03     49.2797E-03
            1744             357     48.1396E-03     49.2797E-03
            1745             357     48.1396E-03     49.2797E-03
            1743             358     46.3028E-03     47.3842E-03
            3964             358     46.3028E-03     47.3842E-03
            1744             358     46.3028E-03     47.3842E-03
            3963             358     46.3028E-03     47.3842E-03
            1743             359     44.6375E-03     45.6299E-03
            1742             359     44.6375E-03     45.6299E-03
            3963             359     44.6375E-03     45.6299E-03
            3962             359     44.6375E-03     45.6299E-03
            3962             360     43.2471E-03     44.1021E-03
            1742             360     43.2471E-03     44.1021E-03
            1741             360     43.2471E-03     44.1021E-03
            3961             360     43.2471E-03     44.1021E-03
            1740             361     42.4034E-03     43.0447E-03
            3961             361     42.4034E-03     43.0447E-03
            1741             361     42.4034E-03     43.0447E-03
            3960             361     42.4034E-03     43.0447E-03
            3959             362     43.3581E-03     43.5461E-03
            3960             362     43.3581E-03     43.5461E-03
            1740             362     43.3581E-03     43.5461E-03
            1739             362     43.3581E-03     43.5461E-03
            1721             363     38.9869E-03     40.5667E-03
            1739             363     38.9869E-03     40.5667E-03
            1703             364     32.7427E-03     35.3185E-03
            1721             364     32.7427E-03     35.3185E-03
            1703             365     30.3225E-03     32.2109E-03
            1685             365     30.3225E-03     32.2109E-03
            1667             366     28.4872E-03     30.6818E-03
            1685             366     28.4872E-03     30.6818E-03
            1649             367     27.3761E-03     29.2672E-03
            1667             367     27.3761E-03     29.2672E-03
            1649             368     26.2969E-03     28.4860E-03
            1631             368     26.2969E-03     28.4860E-03
            1631             369     25.9014E-03     27.5660E-03
            1613             369     25.9014E-03     27.5660E-03
            1613             370     25.5393E-03     28.1829E-03
            1595             370     25.5393E-03     28.1829E-03
            1595             371     28.2014E-03     29.5928E-03
            1577             371     28.2014E-03     29.5928E-03
            1577             372     33.6143E-03     32.6406E-03
            1559             372     33.6143E-03     32.6406E-03
            1559             373     31.7712E-03     33.0937E-03
            1541             373     31.7712E-03     33.0937E-03
            1541             374     26.5671E-03     28.6382E-03
            1523             374     26.5671E-03     28.6382E-03
            1523             375     24.4240E-03     25.9806E-03
            1505             375     24.4240E-03     25.9806E-03
            1505             376     22.8694E-03     24.5842E-03
            1487             376     22.8694E-03     24.5842E-03
            1487             377     21.7499E-03     23.3647E-03
            1469             377     21.7499E-03     23.3647E-03
            1469             378     20.9152E-03     22.3986E-03
            1451             378     20.9152E-03     22.3986E-03
            1451             379     20.0618E-03     21.7940E-03
            1433             379     20.0618E-03     21.7940E-03
            1415             380     19.7719E-03     20.9863E-03
            1433             380     19.7719E-03     20.9863E-03
            1397             381     19.3740E-03     21.5318E-03
            1415             381     19.3740E-03     21.5318E-03
            1379             382     21.3110E-03     22.5261E-03
            1397             382     21.3110E-03     22.5261E-03
            1361             383     24.9518E-03     24.4552E-03
            1379             383     24.9518E-03     24.4552E-03
            1361             384     23.3063E-03     24.4044E-03
            1343             384     23.3063E-03     24.4044E-03
            1343             385     19.3539E-03     20.7716E-03
            1325             385     19.3539E-03     20.7716E-03
            1325             386     17.4992E-03     18.6694E-03
            1307             386     17.4992E-03     18.6694E-03
            1307             387     16.2311E-03     17.4098E-03
            1289             387     16.2311E-03     17.4098E-03
            1271             388     15.2271E-03     16.3670E-03
            1289             388     15.2271E-03     16.3670E-03
            1253             389     14.5157E-03     15.4833E-03
            1271             389     14.5157E-03     15.4833E-03
            1235             390     13.7446E-03     14.9305E-03
            1253             390     13.7446E-03     14.9305E-03
            1235             391     13.4287E-03     14.1574E-03
            1217             391     13.4287E-03     14.1574E-03
            1199             392     13.0022E-03     14.4638E-03
            1217             392     13.0022E-03     14.4638E-03
            1181             393     13.9331E-03     15.0211E-03
            1199             393     13.9331E-03     15.0211E-03
            1181             394     15.8594E-03     16.1913E-03
            1163             394     15.8594E-03     16.1913E-03
            1163             395     14.9060E-03     15.8192E-03
            1145             395     14.9060E-03     15.8192E-03
            1127             396     12.3940E-03     13.0049E-03
            1145             396     12.3940E-03     13.0049E-03
            1109             397     10.8611E-03     11.5215E-03
            1127             397     10.8611E-03     11.5215E-03
            1091             398     9.95538E-03     10.4371E-03
            1109             398     9.95538E-03     10.4371E-03
            1073             399     9.12084E-03     9.61463E-03
            1091             399     9.12084E-03     9.61463E-03
            1073             400     8.58688E-03     8.86610E-03
            1055             400     8.58688E-03     8.86610E-03
            1055             401     7.99348E-03     8.42535E-03
            1037             401     7.99348E-03     8.42535E-03
            1019             402     7.69173E-03     7.80219E-03
            1037             402     7.69173E-03     7.80219E-03
            1019             403     7.49378E-03     7.93046E-03
            1001             403     7.49378E-03     7.93046E-03
             983             404     7.26573E-03     8.50091E-03
            1001             404     7.26573E-03     8.50091E-03
             983             405     7.07153E-03     8.95016E-03
             965             405     7.07153E-03     8.95016E-03
             965             406     6.81289E-03     7.86020E-03
             947             406     6.81289E-03     7.86020E-03
             929             407     5.95270E-03     5.54786E-03
             947             407     5.95270E-03     5.54786E-03
             911             408     4.86223E-03     4.71928E-03
             929             408     4.86223E-03     4.71928E-03
             911             409     4.51819E-03     3.97260E-03
             893             409     4.51819E-03     3.97260E-03
             875             410     4.59233E-03     3.94735E-03
             893             410     4.59233E-03     3.94735E-03
             875             411     3.97955E-03     5.28384E-03
             857             411     3.97955E-03     5.28384E-03
            2342             497     397.850E-06     428.792E-06
            2341             497     397.850E-06     428.792E-06
            2340             498     424.514E-06     411.209E-06
            2341             498     424.514E-06     411.209E-06
            2340             499     428.791E-06     411.484E-06
            2339             499     428.791E-06     411.484E-06
            2339             500     430.740E-06     411.416E-06
            2338             500     430.740E-06     411.416E-06
            2337             501     435.460E-06     408.862E-06
            2338             501     435.460E-06     408.862E-06
            2337             502     439.349E-06     408.564E-06
            2336             502     439.349E-06     408.564E-06
            2336             503     443.535E-06     408.171E-06
            2335             503     443.535E-06     408.171E-06
            2334             504     448.344E-06     408.668E-06
            2335             504     448.344E-06     408.668E-06
            2334             505     452.531E-06     408.959E-06
            2333             505     452.531E-06     408.959E-06
            2332             506     458.009E-06     410.776E-06
            2333             506     458.009E-06     410.776E-06
            2331             507     461.560E-06     411.001E-06
            2332             507     461.560E-06     411.001E-06
            2331             508     468.212E-06     414.382E-06
            2330             508     468.212E-06     414.382E-06
            2330             509     469.179E-06     413.608E-06
            2329             509     469.179E-06     413.608E-06
            2328             510     479.815E-06     416.477E-06
            2329             510     479.815E-06     416.477E-06
            2327             511     462.833E-06     404.201E-06
            2328             511     462.833E-06     404.201E-06
            2327             512     419.974E-06     354.583E-06
            2326             512     419.974E-06     354.583E-06
            2326             513     268.860E-06     301.047E-06
            2325             513     268.860E-06     301.047E-06
            3977             548     48.7172E-03     71.6143E-03
            3959             548     48.7172E-03     71.6143E-03
            3977             549     56.9575E-03     77.3565E-03
            3995             549     56.9575E-03     77.3565E-03
            3995             550     57.4590E-03     45.7585E-03
            4013             550     57.4590E-03     45.7585E-03
            4031             551     60.3387E-03     47.4207E-03
            4013             551     60.3387E-03     47.4207E-03
            4031             552     59.9864E-03     80.6064E-03
            4049             552     59.9864E-03     80.6064E-03
            4050             570     25.8111E-03     28.7988E-03
            3394             570     25.8111E-03     13.1573E-03
            4049             570     25.8111E-03     100.953E-03
            3393             570     25.8111E-03     31.3686E-03
            4051             571     12.3270E-03     13.6199E-03
            3395             571     12.3270E-03     13.6199E-03
            4050             571     12.3270E-03     13.6199E-03
            3394             571     12.3270E-03     13.6199E-03
            4051             572     14.5786E-03     5.06670E-03
            3395             572     14.5786E-03     5.06670E-03
            3396             572     14.5786E-03     5.06670E-03
            4052             572     14.5786E-03     5.06670E-03
            3396             573     18.5856E-03     6.70854E-03
            3397             573     18.5856E-03     6.70854E-03
            4052             573     18.5856E-03     6.70854E-03
            4053             573     18.5856E-03     6.70854E-03
            4054             574     23.5572E-03     12.3624E-03
            3397             574     23.5572E-03     12.3624E-03
            4053             574     23.5572E-03     12.3624E-03
            3398             574     23.5572E-03     12.3624E-03
            3398             575     28.5513E-03     18.2098E-03
            3399             575     28.5513E-03     18.2098E-03
            4054             575     28.5513E-03     18.2098E-03
            4055             575     28.5513E-03     18.2098E-03
            3400             576     33.5169E-03     24.1592E-03
            4055             576     33.5169E-03     24.1592E-03
            4056             576     33.5169E-03     24.1592E-03
            3399             576     33.5169E-03     24.1592E-03
            4056             577     38.5160E-03     30.1243E-03
            3401             577     38.5160E-03     30.1243E-03
            3400             577     38.5160E-03     30.1243E-03
            4057             577     38.5160E-03     30.1243E-03
            3402             578     43.5177E-03     36.1532E-03
            4057             578     43.5177E-03     36.1532E-03
            3401             578     43.5177E-03     36.1532E-03
            4058             578     43.5177E-03     36.1532E-03
            3402             579     48.5055E-03     42.1647E-03
            4059             579     48.5055E-03     42.1647E-03
            3403             579     48.5055E-03     42.1647E-03
            4058             579     48.5055E-03     42.1647E-03
            3404             580     53.4802E-03     48.1576E-03
            3403             580     53.4802E-03     48.1576E-03
            4060             580     53.4802E-03     48.1576E-03
            4059             580     53.4802E-03     48.1576E-03
            4061             581     58.3846E-03     54.0966E-03
            3404             581     58.3846E-03     54.0966E-03
            3405             581     58.3846E-03     54.0966E-03
            4060             581     58.3846E-03     54.0966E-03
            3405             582     63.3142E-03     59.9658E-03
            4062             582     63.3142E-03     59.9658E-03
            4061             582     63.3142E-03     59.9658E-03
            3406             582     63.3142E-03     59.9658E-03
            3407             583     68.1325E-03     65.7653E-03
            4063             583     68.1325E-03     65.7653E-03
            4062             583     68.1325E-03     65.7653E-03
            3406             583     68.1325E-03     65.7653E-03
            3408             584     73.1932E-03     71.6303E-03
            4063             584     73.1932E-03     71.6303E-03
            3407             584     73.1932E-03     71.6303E-03
            4064             584     73.1932E-03     71.6303E-03
            3409             585     78.3185E-03     77.7667E-03
            4065             585     78.3185E-03     77.7667E-03
            4064             585     78.3185E-03     77.7667E-03
            3408             585     78.3185E-03     77.7667E-03
            3409             586     86.2355E-03     88.2798E-03
            4066             586     86.2355E-03     88.2798E-03
            3410             586     86.2355E-03     88.2798E-03
            4065             586     86.2355E-03     88.2798E-03
            3500             587     77.1825E-03     78.1605E-03
            5864             587     77.1825E-03     78.1605E-03
            5863             587     77.1825E-03     78.1605E-03
            3499             587     77.1825E-03     78.1605E-03
            5863             588     72.4732E-03     72.9228E-03
            5862             588     72.4732E-03     72.9228E-03
            3499             588     72.4732E-03     72.9228E-03
            3498             588     72.4732E-03     72.9228E-03
            3498             589     67.7250E-03     68.2566E-03
            3497             589     67.7250E-03     68.2566E-03
            5861             589     67.7250E-03     68.2566E-03
            5862             589     67.7250E-03     68.2566E-03
            5861             590     62.5168E-03     63.2542E-03
            3496             590     62.5168E-03     63.2542E-03
            5860             590     62.5168E-03     63.2542E-03
            3497             590     62.5168E-03     63.2542E-03
            3495             591     57.2229E-03     58.0652E-03
            3496             591     57.2229E-03     58.0652E-03
            5860             591     57.2229E-03     58.0652E-03
            5859             591     57.2229E-03     58.0652E-03
            3495             592     51.7581E-03     52.7131E-03
            5859             592     51.7581E-03     52.7131E-03
            5858             592     51.7581E-03     52.7131E-03
            3494             592     51.7581E-03     52.7131E-03
            5857             593     46.2618E-03     47.2808E-03
            3493             593     46.2618E-03     47.2808E-03
            5858             593     46.2618E-03     47.2808E-03
            3494             593     46.2618E-03     47.2808E-03
            3493             594     40.7327E-03     41.8224E-03
            5857             594     40.7327E-03     41.8224E-03
            5856             594     40.7327E-03     41.8224E-03
            3492             594     40.7327E-03     41.8224E-03
            5856             595     35.2159E-03     36.3427E-03
            5855             595     35.2159E-03     36.3427E-03
            3492             595     35.2159E-03     36.3427E-03
            3491             595     35.2159E-03     36.3427E-03
            5855             596     29.7436E-03     30.9125E-03
            3490             596     29.7436E-03     30.9125E-03
            3491             596     29.7436E-03     30.9125E-03
            5854             596     29.7436E-03     30.9125E-03
            5854             597     24.3528E-03     25.5308E-03
            3489             597     24.3528E-03     25.5308E-03
            5853             597     24.3528E-03     25.5308E-03
            3490             597     24.3528E-03     25.5308E-03
            3489             598     19.1524E-03     20.3058E-03
            5852             598     19.1524E-03     20.3058E-03
            5853             598     19.1524E-03     20.3058E-03
            3488             598     19.1524E-03     20.3058E-03
            5851             599     14.2100E-03     15.2630E-03
            5852             599     14.2100E-03     15.2630E-03
            3488             599     14.2100E-03     15.2630E-03
            3487             599     14.2100E-03     15.2630E-03
            3487             600     9.92825E-03     10.7039E-03
            3486             600     9.92825E-03     10.7039E-03
            5850             600     9.92825E-03     10.7039E-03
            5851             600     9.92825E-03     10.7039E-03
            5850             601     7.90881E-03     7.86032E-03
            5849             601     7.90881E-03     7.86032E-03
            3485             601     7.90881E-03     7.86032E-03
            3486             601     7.90881E-03     7.86032E-03
            5848             602     8.93847E-03     8.20320E-03
            3485             602     8.93847E-03     8.20320E-03
            5849             602     8.93847E-03     8.20320E-03
            3484             602     8.93847E-03     8.20320E-03
            3484             603     11.3473E-03     10.8251E-03
            5847             603     11.3473E-03     10.8251E-03
            5848             603     11.3473E-03     10.8251E-03
            3483             603     11.3473E-03     10.8251E-03
            3465             604     12.5438E-03     11.4537E-03
            3483             604     12.5438E-03     11.4537E-03
            3465             605     15.5754E-03     12.9862E-03
            3447             605     15.5754E-03     12.9862E-03
            3429             606     17.8910E-03     16.0064E-03
            3447             606     17.8910E-03     16.0064E-03
            3411             607     22.4198E-03     19.4195E-03
            3429             607     22.4198E-03     19.4195E-03
            3393             608     26.5059E-03     26.2539E-03
            3411             608     26.5059E-03     26.2539E-03
            5865             692     16.7884E-03     17.2111E-03
            5847             692     16.7884E-03     17.2111E-03
            5883             693     18.9631E-03     18.2489E-03
            5865             693     18.9631E-03     18.2489E-03
            5901             694     17.0808E-03     14.8974E-03
            5883             694     17.0808E-03     14.8974E-03
            5919             695     15.2231E-03     13.6065E-03
            5901             695     15.2231E-03     13.6065E-03
            5919             696     14.5032E-03     12.5969E-03
            5937             696     14.5032E-03     12.5969E-03
            5937             697     13.9422E-03     12.2021E-03
            5955             697     13.9422E-03     12.2021E-03
            5973             698     13.8144E-03     12.1012E-03
            5955             698     13.8144E-03     12.1012E-03
            5973             699     14.0778E-03     12.4983E-03
            5991             699     14.0778E-03     12.4983E-03
            6009             700     14.3448E-03     13.1857E-03
            5991             700     14.3448E-03     13.1857E-03
            6027             701     15.6194E-03     14.2964E-03
            6009             701     15.6194E-03     14.2964E-03
            6027             702     14.4750E-03     16.6868E-03
            6045             702     14.4750E-03     16.6868E-03
            6045             703     13.6143E-03     16.8992E-03
            6063             703     13.6143E-03     16.8992E-03
            6081             704     14.5721E-03     13.6301E-03
            6063             704     14.5721E-03     13.6301E-03
            6099             705     12.6574E-03     11.1677E-03
            6081             705     12.6574E-03     11.1677E-03
            6117             706     11.3599E-03     10.1424E-03
            6099             706     11.3599E-03     10.1424E-03
            6117             707     10.8264E-03     9.49898E-03
            6135             707     10.8264E-03     9.49898E-03
            6153             708     10.4565E-03     9.22452E-03
            6135             708     10.4565E-03     9.22452E-03
            6153             709     10.4284E-03     9.24267E-03
            6171             709     10.4284E-03     9.24267E-03
            6189             710     10.5194E-03     9.44089E-03
            6171             710     10.5194E-03     9.44089E-03
            6207             711     10.9156E-03     9.99444E-03
            6189             711     10.9156E-03     9.99444E-03
            6225             712     11.2696E-03     10.6331E-03
            6207             712     11.2696E-03     10.6331E-03
            6243             713     12.2910E-03     11.7398E-03
            6225             713     12.2910E-03     11.7398E-03
            6243             714     11.6102E-03     13.6603E-03
            6261             714     11.6102E-03     13.6603E-03
            6261             715     10.9385E-03     12.6875E-03
            6279             715     10.9385E-03     12.6875E-03
            6279             716     10.5705E-03     9.79107E-03
            6297             716     10.5705E-03     9.79107E-03
            6297             717     8.85568E-03     8.17347E-03
            6315             717     8.85568E-03     8.17347E-03
            6333             718     8.20716E-03     7.42838E-03
            6315             718     8.20716E-03     7.42838E-03
            6333             719     7.91850E-03     7.15344E-03
            6351             719     7.91850E-03     7.15344E-03
            6351             720     7.86372E-03     7.14062E-03
            6369             720     7.86372E-03     7.14062E-03
            6369             721     7.97539E-03     7.27971E-03
            6387             721     7.97539E-03     7.27971E-03
            6405             722     8.23727E-03     7.72176E-03
            6387             722     8.23727E-03     7.72176E-03
            6423             723     8.57394E-03     8.16421E-03
            6405             723     8.57394E-03     8.16421E-03
            6423             724     9.21637E-03     9.12797E-03
            6441             724     9.21637E-03     9.12797E-03
            6459             725     9.37941E-03     10.5584E-03
            6441             725     9.37941E-03     10.5584E-03
            6477             726     8.99931E-03     9.55941E-03
            6459             726     8.99931E-03     9.55941E-03
            6495             727     8.18899E-03     7.83082E-03
            6477             727     8.18899E-03     7.83082E-03
            6495             728     7.47424E-03     6.72728E-03
            6513             728     7.47424E-03     6.72728E-03
            6531             729     7.47093E-03     6.70845E-03
            6513             729     7.47093E-03     6.70845E-03
            6531             730     7.71406E-03     7.76313E-03
            6549             730     7.71406E-03     7.76313E-03
            5067             748     4.44280E-03     4.52644E-03
            6550             748     4.44280E-03     4.52644E-03
            6549             748     4.44280E-03     4.52644E-03
            5068             748     4.44280E-03     4.52644E-03
            5068             749     4.84869E-03     4.88304E-03
            6551             749     4.84869E-03     4.88304E-03
            6550             749     4.84869E-03     4.88304E-03
            5069             749     4.84869E-03     4.88304E-03
            6551             750     5.05182E-03     5.03006E-03
            6552             750     5.05182E-03     5.03006E-03
            5070             750     5.05182E-03     5.03006E-03
            5069             750     5.05182E-03     5.03006E-03
            6553             751     5.21164E-03     5.17819E-03
            5071             751     5.21164E-03     5.17819E-03
            5070             751     5.21164E-03     5.17819E-03
            6552             751     5.21164E-03     5.17819E-03
            5072             752     5.29726E-03     5.23210E-03
            6553             752     5.29726E-03     5.23210E-03
            5071             752     5.29726E-03     5.23210E-03
            6554             752     5.29726E-03     5.23210E-03
            5072             753     5.36080E-03     5.26066E-03
            6554             753     5.36080E-03     5.26066E-03
            5073             753     5.36080E-03     5.26066E-03
            6555             753     5.36080E-03     5.26066E-03
            5073             754     5.41876E-03     5.28520E-03
            6556             754     5.41876E-03     5.28520E-03
            6555             754     5.41876E-03     5.28520E-03
            5074             754     5.41876E-03     5.28520E-03
            6556             755     5.47482E-03     5.30487E-03
            6557             755     5.47482E-03     5.30487E-03
            5074             755     5.47482E-03     5.30487E-03
            5075             755     5.47482E-03     5.30487E-03
            6558             756     5.53277E-03     5.33178E-03
            5075             756     5.53277E-03     5.33178E-03
            6557             756     5.53277E-03     5.33178E-03
            5076             756     5.53277E-03     5.33178E-03
            5076             757     5.59248E-03     5.35370E-03
            6558             757     5.59248E-03     5.35370E-03
            6559             757     5.59248E-03     5.35370E-03
            5077             757     5.59248E-03     5.35370E-03
            5077             758     5.65000E-03     5.38193E-03
            5078             758     5.65000E-03     5.38193E-03
            6559             758     5.65000E-03     5.38193E-03
            6560             758     5.65000E-03     5.38193E-03
            5078             759     5.69573E-03     5.38706E-03
            5079             759     5.69573E-03     5.38706E-03
            6560             759     5.69573E-03     5.38706E-03
            6561             759     5.69573E-03     5.38706E-03
            6561             760     5.70775E-03     5.36476E-03
            5079             760     5.70775E-03     5.36476E-03
            6562             760     5.70775E-03     5.36476E-03
            5080             760     5.70775E-03     5.36476E-03
            5080             761     5.62153E-03     5.25013E-03
            5081             761     5.62153E-03     5.25013E-03
            6563             761     5.62153E-03     5.25013E-03
            6562             761     5.62153E-03     5.25013E-03
            5082             762     5.22386E-03     4.83397E-03
            6563             762     5.22386E-03     4.83397E-03
            5081             762     5.22386E-03     4.83397E-03
            6564             762     5.22386E-03     4.83397E-03
            6565             763     4.59415E-03     4.12538E-03
            5083             763     4.59415E-03     4.12538E-03
            5082             763     4.59415E-03     4.12538E-03
            6564             763     4.59415E-03     4.12538E-03
            6566             764     3.40267E-03     3.75653E-03
            6565             764     3.40267E-03     3.75653E-03
            5084             764     3.40267E-03     3.75653E-03
            5083             764     3.40267E-03     3.75653E-03
            5084             765     858.854E-06     903.700E-06
            5102             765     858.854E-06     903.700E-06
            5120             766     639.943E-06     631.737E-06
            5102             766     639.943E-06     631.737E-06
            5120             767     415.806E-06     419.467E-06
            5138             767     415.806E-06     419.467E-06
            5156             768     231.083E-06     206.395E-06
            5138             768     231.083E-06     206.395E-06
            5174             769     144.394E-06     225.818E-06
            5156             769     144.394E-06     225.818E-06
            5173             770     241.863E-06     272.674E-06
            5174             770     241.863E-06     272.674E-06
            5172             771     352.824E-06     277.960E-06
            5173             771     352.824E-06     277.960E-06
            5172             772     442.254E-06     377.919E-06
            5171             772     442.254E-06     377.919E-06
            5170             773     498.795E-06     436.970E-06
            5171             773     498.795E-06     436.970E-06
            5169             774     517.696E-06     462.730E-06
            5170             774     517.696E-06     462.730E-06
            5168             775     526.689E-06     472.999E-06
            5169             775     526.689E-06     472.999E-06
            5168             776     522.895E-06     473.425E-06
            5167             776     522.895E-06     473.425E-06
            5167             777     518.516E-06     471.979E-06
            5166             777     518.516E-06     471.979E-06
            5166             778     510.494E-06     467.410E-06
            5165             778     510.494E-06     467.410E-06
            5164             779     503.236E-06     463.841E-06
            5165             779     503.236E-06     463.841E-06
            5163             780     495.146E-06     459.498E-06
            5164             780     495.146E-06     459.498E-06
            5162             781     487.650E-06     456.670E-06
            5163             781     487.650E-06     456.670E-06
            5162             782     480.639E-06     453.508E-06
            5161             782     480.639E-06     453.508E-06
            5161             783     473.349E-06     452.291E-06
            5160             783     473.349E-06     452.291E-06
            5159             784     465.963E-06     451.206E-06
            5160             784     465.963E-06     451.206E-06
            5159             785     457.106E-06     455.547E-06
            5158             785     457.106E-06     455.547E-06
            5157             786     426.643E-06     475.791E-06
            5158             786     426.643E-06     475.791E-06
            5157             787     435.214E-06     468.982E-06
            5139             787     435.214E-06     468.982E-06
            5121             788     457.962E-06     418.842E-06
            5139             788     457.962E-06     418.842E-06
            5103             789     440.561E-06     387.678E-06
            5121             789     440.561E-06     387.678E-06
            5085             790     429.528E-06     387.928E-06
            5103             790     429.528E-06     387.928E-06
            5085             791     382.495E-06     404.617E-06
            5067             791     382.495E-06     404.617E-06
             876            1518     2.98759E-03     3.71031E-03
             858            1518     2.98759E-03     3.71031E-03
             875            1518     2.98759E-03     3.71031E-03
             857            1518     2.98759E-03     3.71031E-03
             876            1519     2.45203E-03     2.06086E-03
             877            1519     2.45203E-03     2.06086E-03
             859            1519     2.45203E-03     2.06086E-03
             858            1519     2.45203E-03     2.06086E-03
             878            1520     3.15167E-03     2.12421E-03
             877            1520     3.15167E-03     2.12421E-03
             859            1520     3.15167E-03     2.12421E-03
             860            1520     3.15167E-03     2.12421E-03
             879            1521     3.61204E-03     2.44503E-03
             860            1521     3.61204E-03     2.44503E-03
             878            1521     3.61204E-03     2.44503E-03
             861            1521     3.61204E-03     2.44503E-03
             879            1522     3.98967E-03     2.78029E-03
             862            1522     3.98967E-03     2.78029E-03
             861            1522     3.98967E-03     2.78029E-03
             880            1522     3.98967E-03     2.78029E-03
             880            1523     4.28906E-03     3.06966E-03
             863            1523     4.28906E-03     3.06966E-03
             881            1523     4.28906E-03     3.06966E-03
             862            1523     4.28906E-03     3.06966E-03
             882            1524     4.56179E-03     3.33900E-03
             881            1524     4.56179E-03     3.33900E-03
             864            1524     4.56179E-03     3.33900E-03
             863            1524     4.56179E-03     3.33900E-03
             864            1525     4.82674E-03     3.60100E-03
             865            1525     4.82674E-03     3.60100E-03
             883            1525     4.82674E-03     3.60100E-03
             882            1525     4.82674E-03     3.60100E-03
             866            1526     5.08787E-03     3.86337E-03
             865            1526     5.08787E-03     3.86337E-03
             884            1526     5.08787E-03     3.86337E-03
             883            1526     5.08787E-03     3.86337E-03
             866            1527     5.35418E-03     4.12789E-03
             867            1527     5.35418E-03     4.12789E-03
             884            1527     5.35418E-03     4.12789E-03
             885            1527     5.35418E-03     4.12789E-03
             867            1528     5.61720E-03     4.39570E-03
             886            1528     5.61720E-03     4.39570E-03
             885            1528     5.61720E-03     4.39570E-03
             868            1528     5.61720E-03     4.39570E-03
             868            1529     5.86628E-03     4.64849E-03
             887            1529     5.86628E-03     4.64849E-03
             869            1529     5.86628E-03     4.64849E-03
             886            1529     5.86628E-03     4.64849E-03
             887            1530     6.08133E-03     4.88052E-03
             888            1530     6.08133E-03     4.88052E-03
             869            1530     6.08133E-03     4.88052E-03
             870            1530     6.08133E-03     4.88052E-03
             889            1531     6.14325E-03     5.00813E-03
             870            1531     6.14325E-03     5.00813E-03
             871            1531     6.14325E-03     5.00813E-03
             888            1531     6.14325E-03     5.00813E-03
             890            1532     6.07982E-03     5.07362E-03
             871            1532     6.07982E-03     5.07362E-03
             889            1532     6.07982E-03     5.07362E-03
             872            1532     6.07982E-03     5.07362E-03
             873            1533     5.51087E-03     5.08363E-03
             891            1533     5.51087E-03     5.08363E-03
             872            1533     5.51087E-03     5.08363E-03
             890            1533     5.51087E-03     5.08363E-03
             892            1534     7.40492E-03     7.79078E-03
             874            1534     7.40492E-03     7.79078E-03
             891            1534     7.40492E-03     7.79078E-03
             873            1534     7.40492E-03     7.79078E-03
             875            1535     3.37995E-03     3.08044E-03
             876            1535     3.37995E-03     3.08044E-03
             894            1535     3.37995E-03     3.08044E-03
             893            1535     3.37995E-03     3.08044E-03
             876            1536     2.44530E-03     2.22691E-03
             894            1536     2.44530E-03     2.22691E-03
             895            1536     2.44530E-03     2.22691E-03
             877            1536     2.44530E-03     2.22691E-03
             896            1537     3.02061E-03     2.44492E-03
             877            1537     3.02061E-03     2.44492E-03
             895            1537     3.02061E-03     2.44492E-03
             878            1537     3.02061E-03     2.44492E-03
             897            1538     3.51500E-03     2.83672E-03
             878            1538     3.51500E-03     2.83672E-03
             896            1538     3.51500E-03     2.83672E-03
             879            1538     3.51500E-03     2.83672E-03
             898            1539     3.84916E-03     3.15834E-03
             897            1539     3.84916E-03     3.15834E-03
             879            1539     3.84916E-03     3.15834E-03
             880            1539     3.84916E-03     3.15834E-03
             881            1540     4.11606E-03     3.42423E-03
             899            1540     4.11606E-03     3.42423E-03
             898            1540     4.11606E-03     3.42423E-03
             880            1540     4.11606E-03     3.42423E-03
             899            1541     4.37145E-03     3.68012E-03
             881            1541     4.37145E-03     3.68012E-03
             882            1541     4.37145E-03     3.68012E-03
             900            1541     4.37145E-03     3.68012E-03
             900            1542     4.62539E-03     3.93477E-03
             883            1542     4.62539E-03     3.93477E-03
             882            1542     4.62539E-03     3.93477E-03
             901            1542     4.62539E-03     3.93477E-03
             884            1543     4.88905E-03     4.19807E-03
             902            1543     4.88905E-03     4.19807E-03
             883            1543     4.88905E-03     4.19807E-03
             901            1543     4.88905E-03     4.19807E-03
             903            1544     5.16168E-03     4.47240E-03
             902            1544     5.16168E-03     4.47240E-03
             885            1544     5.16168E-03     4.47240E-03
             884            1544     5.16168E-03     4.47240E-03
             904            1545     5.44681E-03     4.75903E-03
             885            1545     5.44681E-03     4.75903E-03
             886            1545     5.44681E-03     4.75903E-03
             903            1545     5.44681E-03     4.75903E-03
             905            1546     5.73090E-03     5.04852E-03
             886            1546     5.73090E-03     5.04852E-03
             887            1546     5.73090E-03     5.04852E-03
             904            1546     5.73090E-03     5.04852E-03
             887            1547     5.99688E-03     5.32710E-03
             905            1547     5.99688E-03     5.32710E-03
             906            1547     5.99688E-03     5.32710E-03
             888            1547     5.99688E-03     5.32710E-03
             889            1548     6.16468E-03     5.53174E-03
             906            1548     6.16468E-03     5.53174E-03
             907            1548     6.16468E-03     5.53174E-03
             888            1548     6.16468E-03     5.53174E-03
             890            1549     6.05931E-03     5.59067E-03
             908            1549     6.05931E-03     5.59067E-03
             889            1549     6.05931E-03     5.59067E-03
             907            1549     6.05931E-03     5.59067E-03
             909            1550     5.91088E-03     5.66949E-03
             890            1550     5.91088E-03     5.66949E-03
             891            1550     5.91088E-03     5.66949E-03
             908            1550     5.91088E-03     5.66949E-03
             910            1551     8.44330E-03     8.08135E-03
             891            1551     8.44330E-03     8.08135E-03
             909            1551     8.44330E-03     8.08135E-03
             892            1551     8.44330E-03     8.08135E-03
             893            1552     3.68623E-03     3.35205E-03
             894            1552     3.68623E-03     3.35205E-03
             912            1552     3.68623E-03     3.35205E-03
             911            1552     3.68623E-03     3.35205E-03
             894            1553     2.77832E-03     2.69841E-03
             912            1553     2.77832E-03     2.69841E-03
             913            1553     2.77832E-03     2.69841E-03
             895            1553     2.77832E-03     2.69841E-03
             914            1554     2.97588E-03     2.87587E-03
             896            1554     2.97588E-03     2.87587E-03
             895            1554     2.97588E-03     2.87587E-03
             913            1554     2.97588E-03     2.87587E-03
             915            1555     3.37300E-03     3.21456E-03
             914            1555     3.37300E-03     3.21456E-03
             896            1555     3.37300E-03     3.21456E-03
             897            1555     3.37300E-03     3.21456E-03
             898            1556     3.63421E-03     3.47579E-03
             897            1556     3.63421E-03     3.47579E-03
             915            1556     3.63421E-03     3.47579E-03
             916            1556     3.63421E-03     3.47579E-03
             898            1557     3.89086E-03     3.72847E-03
             899            1557     3.89086E-03     3.72847E-03
             916            1557     3.89086E-03     3.72847E-03
             917            1557     3.89086E-03     3.72847E-03
             899            1558     4.13159E-03     3.97156E-03
             900            1558     4.13159E-03     3.97156E-03
             918            1558     4.13159E-03     3.97156E-03
             917            1558     4.13159E-03     3.97156E-03
             901            1559     4.38007E-03     4.22069E-03
             900            1559     4.38007E-03     4.22069E-03
             918            1559     4.38007E-03     4.22069E-03
             919            1559     4.38007E-03     4.22069E-03
             902            1560     4.63440E-03     4.47665E-03
             901            1560     4.63440E-03     4.47665E-03
             919            1560     4.63440E-03     4.47665E-03
             920            1560     4.63440E-03     4.47665E-03
             903            1561     4.89766E-03     4.74132E-03
             921            1561     4.89766E-03     4.74132E-03
             902            1561     4.89766E-03     4.74132E-03
             920            1561     4.89766E-03     4.74132E-03
             903            1562     5.16587E-03     5.01378E-03
             921            1562     5.16587E-03     5.01378E-03
             922            1562     5.16587E-03     5.01378E-03
             904            1562     5.16587E-03     5.01378E-03
             922            1563     5.44829E-03     5.30154E-03
             923            1563     5.44829E-03     5.30154E-03
             905            1563     5.44829E-03     5.30154E-03
             904            1563     5.44829E-03     5.30154E-03
             906            1564     5.70819E-03     5.57966E-03
             924            1564     5.70819E-03     5.57966E-03
             923            1564     5.70819E-03     5.57966E-03
             905            1564     5.70819E-03     5.57966E-03
             907            1565     5.99529E-03     5.87357E-03
             925            1565     5.99529E-03     5.87357E-03
             906            1565     5.99529E-03     5.87357E-03
             924            1565     5.99529E-03     5.87357E-03
             926            1566     6.19675E-03     6.12603E-03
             908            1566     6.19675E-03     6.12603E-03
             925            1566     6.19675E-03     6.12603E-03
             907            1566     6.19675E-03     6.12603E-03
             908            1567     7.01929E-03     6.90232E-03
             926            1567     7.01929E-03     6.90232E-03
             909            1567     7.01929E-03     6.90232E-03
             927            1567     7.01929E-03     6.90232E-03
             909            1568     9.93904E-03     9.60191E-03
             927            1568     9.93904E-03     9.60191E-03
             928            1568     9.93904E-03     9.60191E-03
             910            1568     9.93904E-03     9.60191E-03
             912            1569     4.14604E-03     4.04240E-03
             911            1569     4.14604E-03     4.04240E-03
             930            1569     4.14604E-03     4.04240E-03
             929            1569     4.14604E-03     4.04240E-03
             912            1570     3.23679E-03     3.35715E-03
             930            1570     3.23679E-03     3.35715E-03
             913            1570     3.23679E-03     3.35715E-03
             931            1570     3.23679E-03     3.35715E-03
             932            1571     3.03424E-03     3.38373E-03
             931            1571     3.03424E-03     3.38373E-03
             914            1571     3.03424E-03     3.38373E-03
             913            1571     3.03424E-03     3.38373E-03
             932            1572     3.15337E-03     3.53023E-03
             915            1572     3.15337E-03     3.53023E-03
             933            1572     3.15337E-03     3.53023E-03
             914            1572     3.15337E-03     3.53023E-03
             933            1573     3.39126E-03     3.75391E-03
             916            1573     3.39126E-03     3.75391E-03
             934            1573     3.39126E-03     3.75391E-03
             915            1573     3.39126E-03     3.75391E-03
             917            1574     3.61831E-03     3.98375E-03
             934            1574     3.61831E-03     3.98375E-03
             916            1574     3.61831E-03     3.98375E-03
             935            1574     3.61831E-03     3.98375E-03
             935            1575     3.85766E-03     4.22396E-03
             918            1575     3.85766E-03     4.22396E-03
             917            1575     3.85766E-03     4.22396E-03
             936            1575     3.85766E-03     4.22396E-03
             936            1576     4.09922E-03     4.46891E-03
             919            1576     4.09922E-03     4.46891E-03
             918            1576     4.09922E-03     4.46891E-03
             937            1576     4.09922E-03     4.46891E-03
             919            1577     4.34216E-03     4.71381E-03
             938            1577     4.34216E-03     4.71381E-03
             920            1577     4.34216E-03     4.71381E-03
             937            1577     4.34216E-03     4.71381E-03
             920            1578     4.58369E-03     4.95946E-03
             921            1578     4.58369E-03     4.95946E-03
             939            1578     4.58369E-03     4.95946E-03
             938            1578     4.58369E-03     4.95946E-03
             939            1579     4.82782E-03     5.20737E-03
             922            1579     4.82782E-03     5.20737E-03
             940            1579     4.82782E-03     5.20737E-03
             921            1579     4.82782E-03     5.20737E-03
             922            1580     5.07184E-03     5.46263E-03
             941            1580     5.07184E-03     5.46263E-03
             940            1580     5.07184E-03     5.46263E-03
             923            1580     5.07184E-03     5.46263E-03
             923            1581     5.35906E-03     5.75548E-03
             924            1581     5.35906E-03     5.75548E-03
             942            1581     5.35906E-03     5.75548E-03
             941            1581     5.35906E-03     5.75548E-03
             943            1582     5.68354E-03     6.10331E-03
             924            1582     5.68354E-03     6.10331E-03
             925            1582     5.68354E-03     6.10331E-03
             942            1582     5.68354E-03     6.10331E-03
             926            1583     6.44229E-03     6.73206E-03
             925            1583     6.44229E-03     6.73206E-03
             944            1583     6.44229E-03     6.73206E-03
             943            1583     6.44229E-03     6.73206E-03
             944            1584     8.18622E-03     8.17812E-03
             945            1584     8.18622E-03     8.17812E-03
             926            1584     8.18622E-03     8.17812E-03
             927            1584     8.18622E-03     8.17812E-03
             928            1585     11.3637E-03     11.3170E-03
             945            1585     11.3637E-03     11.3170E-03
             946            1585     11.3637E-03     11.3170E-03
             927            1585     11.3637E-03     11.3170E-03
             948            1586     5.00890E-03     5.03440E-03
             947            1586     5.00890E-03     5.03440E-03
             929            1586     5.00890E-03     5.03440E-03
             930            1586     5.00890E-03     5.03440E-03
             949            1587     3.52988E-03     4.17109E-03
             931            1587     3.52988E-03     4.17109E-03
             930            1587     3.52988E-03     4.17109E-03
             948            1587     3.52988E-03     4.17109E-03
             949            1588     2.93061E-03     3.79037E-03
             932            1588     2.93061E-03     3.79037E-03
             950            1588     2.93061E-03     3.79037E-03
             931            1588     2.93061E-03     3.79037E-03
             950            1589     2.94514E-03     3.83276E-03
             933            1589     2.94514E-03     3.83276E-03
             932            1589     2.94514E-03     3.83276E-03
             951            1589     2.94514E-03     3.83276E-03
             934            1590     3.12194E-03     4.00293E-03
             952            1590     3.12194E-03     4.00293E-03
             933            1590     3.12194E-03     4.00293E-03
             951            1590     3.12194E-03     4.00293E-03
             935            1591     3.33809E-03     4.22116E-03
             952            1591     3.33809E-03     4.22116E-03
             934            1591     3.33809E-03     4.22116E-03
             953            1591     3.33809E-03     4.22116E-03
             936            1592     3.57329E-03     4.46182E-03
             954            1592     3.57329E-03     4.46182E-03
             935            1592     3.57329E-03     4.46182E-03
             953            1592     3.57329E-03     4.46182E-03
             937            1593     3.80965E-03     4.70257E-03
             954            1593     3.80965E-03     4.70257E-03
             955            1593     3.80965E-03     4.70257E-03
             936            1593     3.80965E-03     4.70257E-03
             956            1594     4.04266E-03     4.94115E-03
             955            1594     4.04266E-03     4.94115E-03
             938            1594     4.04266E-03     4.94115E-03
             937            1594     4.04266E-03     4.94115E-03
             938            1595     4.26939E-03     5.17076E-03
             957            1595     4.26939E-03     5.17076E-03
             939            1595     4.26939E-03     5.17076E-03
             956            1595     4.26939E-03     5.17076E-03
             939            1596     4.49231E-03     5.39976E-03
             957            1596     4.49231E-03     5.39976E-03
             958            1596     4.49231E-03     5.39976E-03
             940            1596     4.49231E-03     5.39976E-03
             941            1597     4.73021E-03     5.64057E-03
             940            1597     4.73021E-03     5.64057E-03
             959            1597     4.73021E-03     5.64057E-03
             958            1597     4.73021E-03     5.64057E-03
             941            1598     5.01927E-03     5.94158E-03
             959            1598     5.01927E-03     5.94158E-03
             960            1598     5.01927E-03     5.94158E-03
             942            1598     5.01927E-03     5.94158E-03
             942            1599     5.49021E-03     6.40396E-03
             960            1599     5.49021E-03     6.40396E-03
             943            1599     5.49021E-03     6.40396E-03
             961            1599     5.49021E-03     6.40396E-03
             943            1600     6.38997E-03     7.26577E-03
             944            1600     6.38997E-03     7.26577E-03
             962            1600     6.38997E-03     7.26577E-03
             961            1600     6.38997E-03     7.26577E-03
             945            1601     8.72676E-03     9.24800E-03
             963            1601     8.72676E-03     9.24800E-03
             962            1601     8.72676E-03     9.24800E-03
             944            1601     8.72676E-03     9.24800E-03
             946            1602     13.0052E-03     12.8661E-03
             963            1602     13.0052E-03     12.8661E-03
             964            1602     13.0052E-03     12.8661E-03
             945            1602     13.0052E-03     12.8661E-03
             948            1603     5.31787E-03     6.55201E-03
             966            1603     5.31787E-03     6.55201E-03
             965            1603     5.31787E-03     6.55201E-03
             947            1603     5.31787E-03     6.55201E-03
             948            1604     3.31264E-03     4.73789E-03
             949            1604     3.31264E-03     4.73789E-03
             967            1604     3.31264E-03     4.73789E-03
             966            1604     3.31264E-03     4.73789E-03
             950            1605     2.76476E-03     4.17347E-03
             968            1605     2.76476E-03     4.17347E-03
             967            1605     2.76476E-03     4.17347E-03
             949            1605     2.76476E-03     4.17347E-03
             950            1606     2.74815E-03     4.13778E-03
             968            1606     2.74815E-03     4.13778E-03
             951            1606     2.74815E-03     4.13778E-03
             969            1606     2.74815E-03     4.13778E-03
             970            1607     2.87159E-03     4.26345E-03
             952            1607     2.87159E-03     4.26345E-03
             969            1607     2.87159E-03     4.26345E-03
             951            1607     2.87159E-03     4.26345E-03
             953            1608     3.08182E-03     4.47578E-03
             971            1608     3.08182E-03     4.47578E-03
             970            1608     3.08182E-03     4.47578E-03
             952            1608     3.08182E-03     4.47578E-03
             954            1609     3.30550E-03     4.70728E-03
             972            1609     3.30550E-03     4.70728E-03
             971            1609     3.30550E-03     4.70728E-03
             953            1609     3.30550E-03     4.70728E-03
             955            1610     3.53573E-03     4.94640E-03
             972            1610     3.53573E-03     4.94640E-03
             954            1610     3.53573E-03     4.94640E-03
             973            1610     3.53573E-03     4.94640E-03
             973            1611     3.76210E-03     5.17877E-03
             956            1611     3.76210E-03     5.17877E-03
             974            1611     3.76210E-03     5.17877E-03
             955            1611     3.76210E-03     5.17877E-03
             975            1612     3.98657E-03     5.40885E-03
             974            1612     3.98657E-03     5.40885E-03
             956            1612     3.98657E-03     5.40885E-03
             957            1612     3.98657E-03     5.40885E-03
             957            1613     4.21605E-03     5.63878E-03
             975            1613     4.21605E-03     5.63878E-03
             976            1613     4.21605E-03     5.63878E-03
             958            1613     4.21605E-03     5.63878E-03
             976            1614     4.48177E-03     5.90135E-03
             959            1614     4.48177E-03     5.90135E-03
             958            1614     4.48177E-03     5.90135E-03
             977            1614     4.48177E-03     5.90135E-03
             959            1615     4.83403E-03     6.24592E-03
             960            1615     4.83403E-03     6.24592E-03
             977            1615     4.83403E-03     6.24592E-03
             978            1615     4.83403E-03     6.24592E-03
             960            1616     5.42726E-03     6.82859E-03
             979            1616     5.42726E-03     6.82859E-03
             978            1616     5.42726E-03     6.82859E-03
             961            1616     5.42726E-03     6.82859E-03
             979            1617     6.46965E-03     7.88453E-03
             980            1617     6.46965E-03     7.88453E-03
             962            1617     6.46965E-03     7.88453E-03
             961            1617     6.46965E-03     7.88453E-03
             963            1618     8.51954E-03     10.0439E-03
             981            1618     8.51954E-03     10.0439E-03
             962            1618     8.51954E-03     10.0439E-03
             980            1618     8.51954E-03     10.0439E-03
             964            1619     13.6020E-03     14.9198E-03
             963            1619     13.6020E-03     14.9198E-03
             981            1619     13.6020E-03     14.9198E-03
             982            1619     13.6020E-03     14.9198E-03
             966            1620     6.51910E-03     7.79094E-03
             984            1620     6.51910E-03     7.79094E-03
             965            1620     6.51910E-03     7.79094E-03
             983            1620     6.51910E-03     7.79094E-03
             966            1621     6.05494E-03     6.60631E-03
             985            1621     6.05494E-03     6.60631E-03
             967            1621     6.05494E-03     6.60631E-03
             984            1621     6.05494E-03     6.60631E-03
             967            1622     6.32788E-03     6.78273E-03
             985            1622     6.32788E-03     6.78273E-03
             968            1622     6.32788E-03     6.78273E-03
             986            1622     6.32788E-03     6.78273E-03
             969            1623     6.77036E-03     7.24433E-03
             968            1623     6.77036E-03     7.24433E-03
             987            1623     6.77036E-03     7.24433E-03
             986            1623     6.77036E-03     7.24433E-03
             988            1624     7.31639E-03     7.79969E-03
             970            1624     7.31639E-03     7.79969E-03
             969            1624     7.31639E-03     7.79969E-03
             987            1624     7.31639E-03     7.79969E-03
             989            1625     7.88435E-03     8.37881E-03
             988            1625     7.88435E-03     8.37881E-03
             970            1625     7.88435E-03     8.37881E-03
             971            1625     7.88435E-03     8.37881E-03
             972            1626     8.44806E-03     8.94291E-03
             989            1626     8.44806E-03     8.94291E-03
             990            1626     8.44806E-03     8.94291E-03
             971            1626     8.44806E-03     8.94291E-03
             972            1627     8.99567E-03     9.48815E-03
             973            1627     8.99567E-03     9.48815E-03
             990            1627     8.99567E-03     9.48815E-03
             991            1627     8.99567E-03     9.48815E-03
             974            1628     9.52015E-03     9.99966E-03
             991            1628     9.52015E-03     9.99966E-03
             992            1628     9.52015E-03     9.99966E-03
             973            1628     9.52015E-03     9.99966E-03
             975            1629     10.0179E-03     10.4831E-03
             974            1629     10.0179E-03     10.4831E-03
             992            1629     10.0179E-03     10.4831E-03
             993            1629     10.0179E-03     10.4831E-03
             994            1630     10.4922E-03     10.9248E-03
             975            1630     10.4922E-03     10.9248E-03
             976            1630     10.4922E-03     10.9248E-03
             993            1630     10.4922E-03     10.9248E-03
             995            1631     10.9377E-03     11.3390E-03
             977            1631     10.9377E-03     11.3390E-03
             994            1631     10.9377E-03     11.3390E-03
             976            1631     10.9377E-03     11.3390E-03
             995            1632     11.4000E-03     11.7322E-03
             978            1632     11.4000E-03     11.7322E-03
             996            1632     11.4000E-03     11.7322E-03
             977            1632     11.4000E-03     11.7322E-03
             997            1633     11.8613E-03     12.1562E-03
             979            1633     11.8613E-03     12.1562E-03
             996            1633     11.8613E-03     12.1562E-03
             978            1633     11.8613E-03     12.1562E-03
             997            1634     12.5167E-03     12.7298E-03
             998            1634     12.5167E-03     12.7298E-03
             980            1634     12.5167E-03     12.7298E-03
             979            1634     12.5167E-03     12.7298E-03
             980            1635     13.2217E-03     13.5678E-03
             981            1635     13.2217E-03     13.5678E-03
             999            1635     13.2217E-03     13.5678E-03
             998            1635     13.2217E-03     13.5678E-03
             982            1636     15.1928E-03     16.0933E-03
            1000            1636     15.1928E-03     16.0933E-03
             999            1636     15.1928E-03     16.0933E-03
             981            1636     15.1928E-03     16.0933E-03
             983            1637     7.68333E-03     8.23435E-03
             984            1637     7.68333E-03     8.23435E-03
            1002            1637     7.68333E-03     8.23435E-03
            1001            1637     7.68333E-03     8.23435E-03
            1002            1638     8.73333E-03     8.39513E-03
             985            1638     8.73333E-03     8.39513E-03
            1003            1638     8.73333E-03     8.39513E-03
             984            1638     8.73333E-03     8.39513E-03
            1003            1639     9.91329E-03     9.34891E-03
             986            1639     9.91329E-03     9.34891E-03
            1004            1639     9.91329E-03     9.34891E-03
             985            1639     9.91329E-03     9.34891E-03
             987            1640     10.9883E-03     10.4069E-03
             986            1640     10.9883E-03     10.4069E-03
            1005            1640     10.9883E-03     10.4069E-03
            1004            1640     10.9883E-03     10.4069E-03
             988            1641     12.0144E-03     11.4419E-03
             987            1641     12.0144E-03     11.4419E-03
            1005            1641     12.0144E-03     11.4419E-03
            1006            1641     12.0144E-03     11.4419E-03
            1007            1642     12.9914E-03     12.4249E-03
             989            1642     12.9914E-03     12.4249E-03
            1006            1642     12.9914E-03     12.4249E-03
             988            1642     12.9914E-03     12.4249E-03
             990            1643     13.9286E-03     13.3600E-03
            1007            1643     13.9286E-03     13.3600E-03
            1008            1643     13.9286E-03     13.3600E-03
             989            1643     13.9286E-03     13.3600E-03
             991            1644     14.8265E-03     14.2451E-03
            1009            1644     14.8265E-03     14.2451E-03
            1008            1644     14.8265E-03     14.2451E-03
             990            1644     14.8265E-03     14.2451E-03
             991            1645     15.6839E-03     15.0834E-03
             992            1645     15.6839E-03     15.0834E-03
            1010            1645     15.6839E-03     15.0834E-03
            1009            1645     15.6839E-03     15.0834E-03
             992            1646     16.4929E-03     15.8636E-03
            1011            1646     16.4929E-03     15.8636E-03
             993            1646     16.4929E-03     15.8636E-03
            1010            1646     16.4929E-03     15.8636E-03
            1011            1647     17.2401E-03     16.5753E-03
             994            1647     17.2401E-03     16.5753E-03
            1012            1647     17.2401E-03     16.5753E-03
             993            1647     17.2401E-03     16.5753E-03
             994            1648     17.8921E-03     17.1859E-03
            1012            1648     17.8921E-03     17.1859E-03
             995            1648     17.8921E-03     17.1859E-03
            1013            1648     17.8921E-03     17.1859E-03
            1013            1649     18.4222E-03     17.6653E-03
             996            1649     18.4222E-03     17.6653E-03
            1014            1649     18.4222E-03     17.6653E-03
             995            1649     18.4222E-03     17.6653E-03
             996            1650     18.7332E-03     17.9394E-03
            1015            1650     18.7332E-03     17.9394E-03
            1014            1650     18.7332E-03     17.9394E-03
             997            1650     18.7332E-03     17.9394E-03
            1015            1651     18.7828E-03     17.9574E-03
             997            1651     18.7828E-03     17.9574E-03
            1016            1651     18.7828E-03     17.9574E-03
             998            1651     18.7828E-03     17.9574E-03
             998            1652     18.2416E-03     17.4869E-03
            1017            1652     18.2416E-03     17.4869E-03
            1016            1652     18.2416E-03     17.4869E-03
             999            1652     18.2416E-03     17.4869E-03
             999            1653     17.7334E-03     17.0987E-03
            1018            1653     17.7334E-03     17.0987E-03
            1017            1653     17.7334E-03     17.0987E-03
            1000            1653     17.7334E-03     17.0987E-03
            1002            1654     7.58124E-03     8.09873E-03
            1019            1654     7.58124E-03     8.09873E-03
            1001            1654     7.58124E-03     8.09873E-03
            1020            1654     7.58124E-03     8.09873E-03
            1020            1655     8.43010E-03     8.70399E-03
            1003            1655     8.43010E-03     8.70399E-03
            1021            1655     8.43010E-03     8.70399E-03
            1002            1655     8.43010E-03     8.70399E-03
            1021            1656     9.87640E-03     9.71472E-03
            1022            1656     9.87640E-03     9.71472E-03
            1003            1656     9.87640E-03     9.71472E-03
            1004            1656     9.87640E-03     9.71472E-03
            1022            1657     11.1463E-03     10.8456E-03
            1005            1657     11.1463E-03     10.8456E-03
            1023            1657     11.1463E-03     10.8456E-03
            1004            1657     11.1463E-03     10.8456E-03
            1006            1658     12.2740E-03     11.9308E-03
            1023            1658     12.2740E-03     11.9308E-03
            1024            1658     12.2740E-03     11.9308E-03
            1005            1658     12.2740E-03     11.9308E-03
            1006            1659     13.3189E-03     12.9614E-03
            1025            1659     13.3189E-03     12.9614E-03
            1007            1659     13.3189E-03     12.9614E-03
            1024            1659     13.3189E-03     12.9614E-03
            1007            1660     14.3033E-03     13.9418E-03
            1025            1660     14.3033E-03     13.9418E-03
            1026            1660     14.3033E-03     13.9418E-03
            1008            1660     14.3033E-03     13.9418E-03
            1026            1661     15.2487E-03     14.8841E-03
            1009            1661     15.2487E-03     14.8841E-03
            1027            1661     15.2487E-03     14.8841E-03
            1008            1661     15.2487E-03     14.8841E-03
            1009            1662     16.1612E-03     15.7914E-03
            1028            1662     16.1612E-03     15.7914E-03
            1027            1662     16.1612E-03     15.7914E-03
            1010            1662     16.1612E-03     15.7914E-03
            1028            1663     17.0351E-03     16.6618E-03
            1029            1663     17.0351E-03     16.6618E-03
            1011            1663     17.0351E-03     16.6618E-03
            1010            1663     17.0351E-03     16.6618E-03
            1030            1664     17.8535E-03     17.4777E-03
            1011            1664     17.8535E-03     17.4777E-03
            1012            1664     17.8535E-03     17.4777E-03
            1029            1664     17.8535E-03     17.4777E-03
            1013            1665     18.5836E-03     18.2134E-03
            1031            1665     18.5836E-03     18.2134E-03
            1012            1665     18.5836E-03     18.2134E-03
            1030            1665     18.5836E-03     18.2134E-03
            1014            1666     19.1607E-03     18.8169E-03
            1032            1666     19.1607E-03     18.8169E-03
            1013            1666     19.1607E-03     18.8169E-03
            1031            1666     19.1607E-03     18.8169E-03
            1014            1667     19.5105E-03     19.2193E-03
            1032            1667     19.5105E-03     19.2193E-03
            1033            1667     19.5105E-03     19.2193E-03
            1015            1667     19.5105E-03     19.2193E-03
            1033            1668     19.5002E-03     19.3283E-03
            1016            1668     19.5002E-03     19.3283E-03
            1034            1668     19.5002E-03     19.3283E-03
            1015            1668     19.5002E-03     19.3283E-03
            1034            1669     19.0503E-03     19.0450E-03
            1035            1669     19.0503E-03     19.0450E-03
            1017            1669     19.0503E-03     19.0450E-03
            1016            1669     19.0503E-03     19.0450E-03
            1035            1670     19.5841E-03     19.4663E-03
            1018            1670     19.5841E-03     19.4663E-03
            1036            1670     19.5841E-03     19.4663E-03
            1017            1670     19.5841E-03     19.4663E-03
            1038            1671     7.84826E-03     8.14429E-03
            1020            1671     7.84826E-03     8.14429E-03
            1019            1671     7.84826E-03     8.14429E-03
            1037            1671     7.84826E-03     8.14429E-03
            1039            1672     8.62132E-03     9.03817E-03
            1038            1672     8.62132E-03     9.03817E-03
            1020            1672     8.62132E-03     9.03817E-03
            1021            1672     8.62132E-03     9.03817E-03
            1040            1673     9.95282E-03     10.1531E-03
            1021            1673     9.95282E-03     10.1531E-03
            1022            1673     9.95282E-03     10.1531E-03
            1039            1673     9.95282E-03     10.1531E-03
            1022            1674     11.2894E-03     11.2842E-03
            1040            1674     11.2894E-03     11.2842E-03
            1041            1674     11.2894E-03     11.2842E-03
            1023            1674     11.2894E-03     11.2842E-03
            1023            1675     12.4707E-03     12.3853E-03
            1024            1675     12.4707E-03     12.3853E-03
            1041            1675     12.4707E-03     12.3853E-03
            1042            1675     12.4707E-03     12.3853E-03
            1043            1676     13.5471E-03     13.4244E-03
            1025            1676     13.5471E-03     13.4244E-03
            1042            1676     13.5471E-03     13.4244E-03
            1024            1676     13.5471E-03     13.4244E-03
            1025            1677     14.5574E-03     14.4236E-03
            1026            1677     14.5574E-03     14.4236E-03
            1044            1677     14.5574E-03     14.4236E-03
            1043            1677     14.5574E-03     14.4236E-03
            1045            1678     15.5302E-03     15.3949E-03
            1026            1678     15.5302E-03     15.3949E-03
            1044            1678     15.5302E-03     15.3949E-03
            1027            1678     15.5302E-03     15.3949E-03
            1028            1679     16.4735E-03     16.3457E-03
            1046            1679     16.4735E-03     16.3457E-03
            1027            1679     16.4735E-03     16.3457E-03
            1045            1679     16.4735E-03     16.3457E-03
            1029            1680     17.3921E-03     17.2756E-03
            1047            1680     17.3921E-03     17.2756E-03
            1028            1680     17.3921E-03     17.2756E-03
            1046            1680     17.3921E-03     17.2756E-03
            1030            1681     18.2626E-03     18.1706E-03
            1029            1681     18.2626E-03     18.1706E-03
            1048            1681     18.2626E-03     18.1706E-03
            1047            1681     18.2626E-03     18.1706E-03
            1031            1682     19.0569E-03     19.0020E-03
            1030            1682     19.0569E-03     19.0020E-03
            1049            1682     19.0569E-03     19.0020E-03
            1048            1682     19.0569E-03     19.0020E-03
            1049            1683     19.7121E-03     19.7189E-03
            1032            1683     19.7121E-03     19.7189E-03
            1050            1683     19.7121E-03     19.7189E-03
            1031            1683     19.7121E-03     19.7189E-03
            1032            1684     20.1594E-03     20.2631E-03
            1051            1684     20.1594E-03     20.2631E-03
            1033            1684     20.1594E-03     20.2631E-03
            1050            1684     20.1594E-03     20.2631E-03
            1051            1685     20.3254E-03     20.5399E-03
            1052            1685     20.3254E-03     20.5399E-03
            1034            1685     20.3254E-03     20.5399E-03
            1033            1685     20.3254E-03     20.5399E-03
            1034            1686     20.5502E-03     20.7825E-03
            1053            1686     20.5502E-03     20.7825E-03
            1052            1686     20.5502E-03     20.7825E-03
            1035            1686     20.5502E-03     20.7825E-03
            1053            1687     21.7129E-03     21.6783E-03
            1035            1687     21.7129E-03     21.6783E-03
            1036            1687     21.7129E-03     21.6783E-03
            1054            1687     21.7129E-03     21.6783E-03
            1038            1688     8.24649E-03     8.65038E-03
            1056            1688     8.24649E-03     8.65038E-03
            1055            1688     8.24649E-03     8.65038E-03
            1037            1688     8.24649E-03     8.65038E-03
            1057            1689     9.03667E-03     9.44369E-03
            1056            1689     9.03667E-03     9.44369E-03
            1039            1689     9.03667E-03     9.44369E-03
            1038            1689     9.03667E-03     9.44369E-03
            1057            1690     10.2019E-03     10.5831E-03
            1058            1690     10.2019E-03     10.5831E-03
            1039            1690     10.2019E-03     10.5831E-03
            1040            1690     10.2019E-03     10.5831E-03
            1041            1691     11.4462E-03     11.6983E-03
            1040            1691     11.4462E-03     11.6983E-03
            1058            1691     11.4462E-03     11.6983E-03
            1059            1691     11.4462E-03     11.6983E-03
            1042            1692     12.6034E-03     12.7583E-03
            1059            1692     12.6034E-03     12.7583E-03
            1060            1692     12.6034E-03     12.7583E-03
            1041            1692     12.6034E-03     12.7583E-03
            1043            1693     13.6615E-03     13.7753E-03
            1060            1693     13.6615E-03     13.7753E-03
            1042            1693     13.6615E-03     13.7753E-03
            1061            1693     13.6615E-03     13.7753E-03
            1044            1694     14.6672E-03     14.7616E-03
            1043            1694     14.6672E-03     14.7616E-03
            1062            1694     14.6672E-03     14.7616E-03
            1061            1694     14.6672E-03     14.7616E-03
            1063            1695     15.6368E-03     15.7335E-03
            1044            1695     15.6368E-03     15.7335E-03
            1045            1695     15.6368E-03     15.7335E-03
            1062            1695     15.6368E-03     15.7335E-03
            1063            1696     16.5962E-03     16.7032E-03
            1045            1696     16.5962E-03     16.7032E-03
            1046            1696     16.5962E-03     16.7032E-03
            1064            1696     16.5962E-03     16.7032E-03
            1046            1697     17.5352E-03     17.6674E-03
            1047            1697     17.5352E-03     17.6674E-03
            1064            1697     17.5352E-03     17.6674E-03
            1065            1697     17.5352E-03     17.6674E-03
            1047            1698     18.4575E-03     18.6207E-03
            1048            1698     18.4575E-03     18.6207E-03
            1065            1698     18.4575E-03     18.6207E-03
            1066            1698     18.4575E-03     18.6207E-03
            1049            1699     19.3223E-03     19.5383E-03
            1048            1699     19.3223E-03     19.5383E-03
            1067            1699     19.3223E-03     19.5383E-03
            1066            1699     19.3223E-03     19.5383E-03
            1049            1700     20.1073E-03     20.3854E-03
            1067            1700     20.1073E-03     20.3854E-03
            1050            1700     20.1073E-03     20.3854E-03
            1068            1700     20.1073E-03     20.3854E-03
            1051            1701     20.7577E-03     21.1077E-03
            1050            1701     20.7577E-03     21.1077E-03
            1068            1701     20.7577E-03     21.1077E-03
            1069            1701     20.7577E-03     21.1077E-03
            1051            1702     21.3386E-03     21.7287E-03
            1052            1702     21.3386E-03     21.7287E-03
            1070            1702     21.3386E-03     21.7287E-03
            1069            1702     21.3386E-03     21.7287E-03
            1052            1703     22.1742E-03     22.4488E-03
            1053            1703     22.1742E-03     22.4488E-03
            1070            1703     22.1742E-03     22.4488E-03
            1071            1703     22.1742E-03     22.4488E-03
            1053            1704     23.6196E-03     23.7235E-03
            1054            1704     23.6196E-03     23.7235E-03
            1072            1704     23.6196E-03     23.7235E-03
            1071            1704     23.6196E-03     23.7235E-03
            1056            1705     8.80098E-03     9.21133E-03
            1073            1705     8.80098E-03     9.21133E-03
            1074            1705     8.80098E-03     9.21133E-03
            1055            1705     8.80098E-03     9.21133E-03
            1056            1706     9.50554E-03     10.0201E-03
            1075            1706     9.50554E-03     10.0201E-03
            1074            1706     9.50554E-03     10.0201E-03
            1057            1706     9.50554E-03     10.0201E-03
            1057            1707     10.5509E-03     11.0262E-03
            1076            1707     10.5509E-03     11.0262E-03
            1058            1707     10.5509E-03     11.0262E-03
            1075            1707     10.5509E-03     11.0262E-03
            1059            1708     11.6306E-03     12.0634E-03
            1076            1708     11.6306E-03     12.0634E-03
            1077            1708     11.6306E-03     12.0634E-03
            1058            1708     11.6306E-03     12.0634E-03
            1078            1709     12.6778E-03     13.0472E-03
            1077            1709     12.6778E-03     13.0472E-03
            1060            1709     12.6778E-03     13.0472E-03
            1059            1709     12.6778E-03     13.0472E-03
            1061            1710     13.6756E-03     14.0037E-03
            1060            1710     13.6756E-03     14.0037E-03
            1078            1710     13.6756E-03     14.0037E-03
            1079            1710     13.6756E-03     14.0037E-03
            1080            1711     14.6312E-03     14.9473E-03
            1079            1711     14.6312E-03     14.9473E-03
            1061            1711     14.6312E-03     14.9473E-03
            1062            1711     14.6312E-03     14.9473E-03
            1063            1712     15.5844E-03     15.9005E-03
            1062            1712     15.5844E-03     15.9005E-03
            1080            1712     15.5844E-03     15.9005E-03
            1081            1712     15.5844E-03     15.9005E-03
            1082            1713     16.5303E-03     16.8631E-03
            1064            1713     16.5303E-03     16.8631E-03
            1081            1713     16.5303E-03     16.8631E-03
            1063            1713     16.5303E-03     16.8631E-03
            1065            1714     17.4893E-03     17.8449E-03
            1064            1714     17.4893E-03     17.8449E-03
            1083            1714     17.4893E-03     17.8449E-03
            1082            1714     17.4893E-03     17.8449E-03
            1065            1715     18.4434E-03     18.8381E-03
            1083            1715     18.4434E-03     18.8381E-03
            1084            1715     18.4434E-03     18.8381E-03
            1066            1715     18.4434E-03     18.8381E-03
            1084            1716     19.4110E-03     19.8415E-03
            1066            1716     19.4110E-03     19.8415E-03
            1067            1716     19.4110E-03     19.8415E-03
            1085            1716     19.4110E-03     19.8415E-03
            1085            1717     20.3583E-03     20.8382E-03
            1067            1717     20.3583E-03     20.8382E-03
            1086            1717     20.3583E-03     20.8382E-03
            1068            1717     20.3583E-03     20.8382E-03
            1069            1718     21.3124E-03     21.8173E-03
            1068            1718     21.3124E-03     21.8173E-03
            1086            1718     21.3124E-03     21.8173E-03
            1087            1718     21.3124E-03     21.8173E-03
            1070            1719     22.3646E-03     22.8187E-03
            1087            1719     22.3646E-03     22.8187E-03
            1088            1719     22.3646E-03     22.8187E-03
            1069            1719     22.3646E-03     22.8187E-03
            1088            1720     23.6365E-03     24.0094E-03
            1071            1720     23.6365E-03     24.0094E-03
            1070            1720     23.6365E-03     24.0094E-03
            1089            1720     23.6365E-03     24.0094E-03
            1072            1721     25.4577E-03     25.6399E-03
            1071            1721     25.4577E-03     25.6399E-03
            1089            1721     25.4577E-03     25.6399E-03
            1090            1721     25.4577E-03     25.6399E-03
            1074            1722     9.40370E-03     9.90959E-03
            1091            1722     9.40370E-03     9.90959E-03
            1073            1722     9.40370E-03     9.90959E-03
            1092            1722     9.40370E-03     9.90959E-03
            1075            1723     10.0827E-03     10.6492E-03
            1074            1723     10.0827E-03     10.6492E-03
            1093            1723     10.0827E-03     10.6492E-03
            1092            1723     10.0827E-03     10.6492E-03
            1075            1724     10.9142E-03     11.5143E-03
            1076            1724     10.9142E-03     11.5143E-03
            1093            1724     10.9142E-03     11.5143E-03
            1094            1724     10.9142E-03     11.5143E-03
            1095            1725     11.8174E-03     12.3882E-03
            1077            1725     11.8174E-03     12.3882E-03
            1094            1725     11.8174E-03     12.3882E-03
            1076            1725     11.8174E-03     12.3882E-03
            1077            1726     12.7092E-03     13.2568E-03
            1078            1726     12.7092E-03     13.2568E-03
            1095            1726     12.7092E-03     13.2568E-03
            1096            1726     12.7092E-03     13.2568E-03
            1079            1727     13.5879E-03     14.1165E-03
            1097            1727     13.5879E-03     14.1165E-03
            1096            1727     13.5879E-03     14.1165E-03
            1078            1727     13.5879E-03     14.1165E-03
            1097            1728     14.4882E-03     15.0076E-03
            1080            1728     14.4882E-03     15.0076E-03
            1098            1728     14.4882E-03     15.0076E-03
            1079            1728     14.4882E-03     15.0076E-03
            1099            1729     15.3931E-03     15.9185E-03
            1081            1729     15.3931E-03     15.9185E-03
            1098            1729     15.3931E-03     15.9185E-03
            1080            1729     15.3931E-03     15.9185E-03
            1099            1730     16.3246E-03     16.8636E-03
            1082            1730     16.3246E-03     16.8636E-03
            1100            1730     16.3246E-03     16.8636E-03
            1081            1730     16.3246E-03     16.8636E-03
            1083            1731     17.2756E-03     17.8397E-03
            1101            1731     17.2756E-03     17.8397E-03
            1100            1731     17.2756E-03     17.8397E-03
            1082            1731     17.2756E-03     17.8397E-03
            1102            1732     18.2731E-03     18.8624E-03
            1084            1732     18.2731E-03     18.8624E-03
            1083            1732     18.2731E-03     18.8624E-03
            1101            1732     18.2731E-03     18.8624E-03
            1084            1733     19.3125E-03     19.9362E-03
            1103            1733     19.3125E-03     19.9362E-03
            1085            1733     19.3125E-03     19.9362E-03
            1102            1733     19.3125E-03     19.9362E-03
            1085            1734     20.4639E-03     21.0895E-03
            1103            1734     20.4639E-03     21.0895E-03
            1086            1734     20.4639E-03     21.0895E-03
            1104            1734     20.4639E-03     21.0895E-03
            1104            1735     21.7446E-03     22.3581E-03
            1105            1735     21.7446E-03     22.3581E-03
            1087            1735     21.7446E-03     22.3581E-03
            1086            1735     21.7446E-03     22.3581E-03
            1087            1736     23.2199E-03     23.7768E-03
            1088            1736     23.2199E-03     23.7768E-03
            1105            1736     23.2199E-03     23.7768E-03
            1106            1736     23.2199E-03     23.7768E-03
            1088            1737     25.0262E-03     25.4243E-03
            1106            1737     25.0262E-03     25.4243E-03
            1089            1737     25.0262E-03     25.4243E-03
            1107            1737     25.0262E-03     25.4243E-03
            1090            1738     27.1789E-03     27.5031E-03
            1107            1738     27.1789E-03     27.5031E-03
            1089            1738     27.1789E-03     27.5031E-03
            1108            1738     27.1789E-03     27.5031E-03
            1092            1739     10.1714E-03     10.7412E-03
            1109            1739     10.1714E-03     10.7412E-03
            1110            1739     10.1714E-03     10.7412E-03
            1091            1739     10.1714E-03     10.7412E-03
            1111            1740     10.6797E-03     11.3496E-03
            1093            1740     10.6797E-03     11.3496E-03
            1092            1740     10.6797E-03     11.3496E-03
            1110            1740     10.6797E-03     11.3496E-03
            1093            1741     11.3205E-03     12.0156E-03
            1094            1741     11.3205E-03     12.0156E-03
            1111            1741     11.3205E-03     12.0156E-03
            1112            1741     11.3205E-03     12.0156E-03
            1113            1742     11.9722E-03     12.6837E-03
            1094            1742     11.9722E-03     12.6837E-03
            1095            1742     11.9722E-03     12.6837E-03
            1112            1742     11.9722E-03     12.6837E-03
            1114            1743     12.6603E-03     13.3743E-03
            1095            1743     12.6603E-03     13.3743E-03
            1113            1743     12.6603E-03     13.3743E-03
            1096            1743     12.6603E-03     13.3743E-03
            1096            1744     13.4398E-03     14.1527E-03
            1097            1744     13.4398E-03     14.1527E-03
            1114            1744     13.4398E-03     14.1527E-03
            1115            1744     13.4398E-03     14.1527E-03
            1116            1745     14.2582E-03     14.9718E-03
            1097            1745     14.2582E-03     14.9718E-03
            1115            1745     14.2582E-03     14.9718E-03
            1098            1745     14.2582E-03     14.9718E-03
            1117            1746     15.1215E-03     15.8419E-03
            1099            1746     15.1215E-03     15.8419E-03
            1098            1746     15.1215E-03     15.8419E-03
            1116            1746     15.1215E-03     15.8419E-03
            1099            1747     16.0186E-03     16.7517E-03
            1100            1747     16.0186E-03     16.7517E-03
            1117            1747     16.0186E-03     16.7517E-03
            1118            1747     16.0186E-03     16.7517E-03
            1101            1748     16.9628E-03     17.7134E-03
            1118            1748     16.9628E-03     17.7134E-03
            1100            1748     16.9628E-03     17.7134E-03
            1119            1748     16.9628E-03     17.7134E-03
            1102            1749     17.9659E-03     18.7375E-03
            1120            1749     17.9659E-03     18.7375E-03
            1101            1749     17.9659E-03     18.7375E-03
            1119            1749     17.9659E-03     18.7375E-03
            1120            1750     19.0819E-03     19.8644E-03
            1103            1750     19.0819E-03     19.8644E-03
            1102            1750     19.0819E-03     19.8644E-03
            1121            1750     19.0819E-03     19.8644E-03
            1103            1751     20.3488E-03     21.1357E-03
            1104            1751     20.3488E-03     21.1357E-03
            1121            1751     20.3488E-03     21.1357E-03
            1122            1751     20.3488E-03     21.1357E-03
            1105            1752     21.9404E-03     22.6539E-03
            1123            1752     21.9404E-03     22.6539E-03
            1122            1752     21.9404E-03     22.6539E-03
            1104            1752     21.9404E-03     22.6539E-03
            1124            1753     23.8956E-03     24.5135E-03
            1105            1753     23.8956E-03     24.5135E-03
            1106            1753     23.8956E-03     24.5135E-03
            1123            1753     23.8956E-03     24.5135E-03
            1125            1754     26.1903E-03     26.7414E-03
            1106            1754     26.1903E-03     26.7414E-03
            1107            1754     26.1903E-03     26.7414E-03
            1124            1754     26.1903E-03     26.7414E-03
            1108            1755     28.9376E-03     29.2729E-03
            1126            1755     28.9376E-03     29.2729E-03
            1107            1755     28.9376E-03     29.2729E-03
            1125            1755     28.9376E-03     29.2729E-03
            1109            1756     11.0568E-03     11.7381E-03
            1110            1756     11.0568E-03     11.7381E-03
            1127            1756     11.0568E-03     11.7381E-03
            1128            1756     11.0568E-03     11.7381E-03
            1129            1757     11.4388E-03     12.1781E-03
            1110            1757     11.4388E-03     12.1781E-03
            1111            1757     11.4388E-03     12.1781E-03
            1128            1757     11.4388E-03     12.1781E-03
            1112            1758     11.6899E-03     12.5001E-03
            1130            1758     11.6899E-03     12.5001E-03
            1129            1758     11.6899E-03     12.5001E-03
            1111            1758     11.6899E-03     12.5001E-03
            1131            1759     12.0007E-03     12.8640E-03
            1112            1759     12.0007E-03     12.8640E-03
            1130            1759     12.0007E-03     12.8640E-03
            1113            1759     12.0007E-03     12.8640E-03
            1132            1760     12.5611E-03     13.4463E-03
            1113            1760     12.5611E-03     13.4463E-03
            1114            1760     12.5611E-03     13.4463E-03
            1131            1760     12.5611E-03     13.4463E-03
            1133            1761     13.2354E-03     14.1292E-03
            1114            1761     13.2354E-03     14.1292E-03
            1132            1761     13.2354E-03     14.1292E-03
            1115            1761     13.2354E-03     14.1292E-03
            1134            1762     13.9941E-03     14.8966E-03
            1115            1762     13.9941E-03     14.8966E-03
            1133            1762     13.9941E-03     14.8966E-03
            1116            1762     13.9941E-03     14.8966E-03
            1116            1763     14.8127E-03     15.7206E-03
            1134            1763     14.8127E-03     15.7206E-03
            1117            1763     14.8127E-03     15.7206E-03
            1135            1763     14.8127E-03     15.7206E-03
            1135            1764     15.6781E-03     16.5950E-03
            1117            1764     15.6781E-03     16.5950E-03
            1118            1764     15.6781E-03     16.5950E-03
            1136            1764     15.6781E-03     16.5950E-03
            1118            1765     16.6005E-03     17.5254E-03
            1137            1765     16.6005E-03     17.5254E-03
            1136            1765     16.6005E-03     17.5254E-03
            1119            1765     16.6005E-03     17.5254E-03
            1138            1766     17.6006E-03     18.5361E-03
            1120            1766     17.6006E-03     18.5361E-03
            1119            1766     17.6006E-03     18.5361E-03
            1137            1766     17.6006E-03     18.5361E-03
            1138            1767     18.7280E-03     19.6682E-03
            1139            1767     18.7280E-03     19.6682E-03
            1120            1767     18.7280E-03     19.6682E-03
            1121            1767     18.7280E-03     19.6682E-03
            1122            1768     20.0805E-03     21.0092E-03
            1139            1768     20.0805E-03     21.0092E-03
            1121            1768     20.0805E-03     21.0092E-03
            1140            1768     20.0805E-03     21.0092E-03
            1141            1769     21.7613E-03     22.6608E-03
            1140            1769     21.7613E-03     22.6608E-03
            1122            1769     21.7613E-03     22.6608E-03
            1123            1769     21.7613E-03     22.6608E-03
            1141            1770     24.1554E-03     24.8725E-03
            1123            1770     24.1554E-03     24.8725E-03
            1142            1770     24.1554E-03     24.8725E-03
            1124            1770     24.1554E-03     24.8725E-03
            1143            1771     27.2240E-03     27.7405E-03
            1142            1771     27.2240E-03     27.7405E-03
            1124            1771     27.2240E-03     27.7405E-03
            1125            1771     27.2240E-03     27.7405E-03
            1143            1772     30.5149E-03     31.1207E-03
            1144            1772     30.5149E-03     31.1207E-03
            1125            1772     30.5149E-03     31.1207E-03
            1126            1772     30.5149E-03     31.1207E-03
            1146            1773     12.4733E-03     13.1639E-03
            1145            1773     12.4733E-03     13.1639E-03
            1128            1773     12.4733E-03     13.1639E-03
            1127            1773     12.4733E-03     13.1639E-03
            1146            1774     12.1694E-03     13.0228E-03
            1147            1774     12.1694E-03     13.0228E-03
            1128            1774     12.1694E-03     13.0228E-03
            1129            1774     12.1694E-03     13.0228E-03
            1129            1775     11.7643E-03     12.7466E-03
            1148            1775     11.7643E-03     12.7466E-03
            1147            1775     11.7643E-03     12.7466E-03
            1130            1775     11.7643E-03     12.7466E-03
            1148            1776     11.9455E-03     12.9832E-03
            1130            1776     11.9455E-03     12.9832E-03
            1131            1776     11.9455E-03     12.9832E-03
            1149            1776     11.9455E-03     12.9832E-03
            1131            1777     12.4066E-03     13.4701E-03
            1150            1777     12.4066E-03     13.4701E-03
            1132            1777     12.4066E-03     13.4701E-03
            1149            1777     12.4066E-03     13.4701E-03
            1150            1778     13.0138E-03     14.0974E-03
            1132            1778     13.0138E-03     14.0974E-03
            1133            1778     13.0138E-03     14.0974E-03
            1151            1778     13.0138E-03     14.0974E-03
            1152            1779     13.7342E-03     14.8250E-03
            1133            1779     13.7342E-03     14.8250E-03
            1151            1779     13.7342E-03     14.8250E-03
            1134            1779     13.7342E-03     14.8250E-03
            1153            1780     14.5139E-03     15.6105E-03
            1134            1780     14.5139E-03     15.6105E-03
            1135            1780     14.5139E-03     15.6105E-03
            1152            1780     14.5139E-03     15.6105E-03
            1154            1781     15.3560E-03     16.4511E-03
            1135            1781     15.3560E-03     16.4511E-03
            1153            1781     15.3560E-03     16.4511E-03
            1136            1781     15.3560E-03     16.4511E-03
            1154            1782     16.2518E-03     17.3460E-03
            1137            1782     16.2518E-03     17.3460E-03
            1155            1782     16.2518E-03     17.3460E-03
            1136            1782     16.2518E-03     17.3460E-03
            1155            1783     17.2387E-03     18.3253E-03
            1138            1783     17.2387E-03     18.3253E-03
            1137            1783     17.2387E-03     18.3253E-03
            1156            1783     17.2387E-03     18.3253E-03
            1138            1784     18.3507E-03     19.4346E-03
            1156            1784     18.3507E-03     19.4346E-03
            1139            1784     18.3507E-03     19.4346E-03
            1157            1784     18.3507E-03     19.4346E-03
            1158            1785     19.6914E-03     20.7641E-03
            1139            1785     19.6914E-03     20.7641E-03
            1140            1785     19.6914E-03     20.7641E-03
            1157            1785     19.6914E-03     20.7641E-03
            1140            1786     21.4002E-03     22.4616E-03
            1159            1786     21.4002E-03     22.4616E-03
            1158            1786     21.4002E-03     22.4616E-03
            1141            1786     21.4002E-03     22.4616E-03
            1141            1787     23.7154E-03     24.7481E-03
            1159            1787     23.7154E-03     24.7481E-03
            1160            1787     23.7154E-03     24.7481E-03
            1142            1787     23.7154E-03     24.7481E-03
            1161            1788     27.4891E-03     28.1963E-03
            1142            1788     27.4891E-03     28.1963E-03
            1160            1788     27.4891E-03     28.1963E-03
            1143            1788     27.4891E-03     28.1963E-03
            1143            1789     32.2184E-03     32.4027E-03
            1161            1789     32.2184E-03     32.4027E-03
            1162            1789     32.2184E-03     32.4027E-03
            1144            1789     32.2184E-03     32.4027E-03
            1164            1790     13.8493E-03     14.8415E-03
            1145            1790     13.8493E-03     14.8415E-03
            1163            1790     13.8493E-03     14.8415E-03
            1146            1790     13.8493E-03     14.8415E-03
            1164            1791     12.1813E-03     13.3079E-03
            1147            1791     12.1813E-03     13.3079E-03
            1146            1791     12.1813E-03     13.3079E-03
            1165            1791     12.1813E-03     13.3079E-03
            1147            1792     11.6438E-03     12.8383E-03
            1148            1792     11.6438E-03     12.8383E-03
            1166            1792     11.6438E-03     12.8383E-03
            1165            1792     11.6438E-03     12.8383E-03
            1167            1793     11.8281E-03     13.0568E-03
            1166            1793     11.8281E-03     13.0568E-03
            1149            1793     11.8281E-03     13.0568E-03
            1148            1793     11.8281E-03     13.0568E-03
            1149            1794     12.2261E-03     13.4870E-03
            1168            1794     12.2261E-03     13.4870E-03
            1167            1794     12.2261E-03     13.4870E-03
            1150            1794     12.2261E-03     13.4870E-03
            1150            1795     12.8225E-03     14.1015E-03
            1168            1795     12.8225E-03     14.1015E-03
            1151            1795     12.8225E-03     14.1015E-03
            1169            1795     12.8225E-03     14.1015E-03
            1151            1796     13.5024E-03     14.7931E-03
            1152            1796     13.5024E-03     14.7931E-03
            1169            1796     13.5024E-03     14.7931E-03
            1170            1796     13.5024E-03     14.7931E-03
            1153            1797     14.2662E-03     15.5561E-03
            1171            1797     14.2662E-03     15.5561E-03
            1170            1797     14.2662E-03     15.5561E-03
            1152            1797     14.2662E-03     15.5561E-03
            1153            1798     15.0809E-03     16.3628E-03
            1171            1798     15.0809E-03     16.3628E-03
            1172            1798     15.0809E-03     16.3628E-03
            1154            1798     15.0809E-03     16.3628E-03
            1173            1799     15.9692E-03     17.2310E-03
            1155            1799     15.9692E-03     17.2310E-03
            1154            1799     15.9692E-03     17.2310E-03
            1172            1799     15.9692E-03     17.2310E-03
            1155            1800     16.9348E-03     18.1730E-03
            1174            1800     16.9348E-03     18.1730E-03
            1156            1800     16.9348E-03     18.1730E-03
            1173            1800     16.9348E-03     18.1730E-03
            1156            1801     18.0450E-03     19.2502E-03
            1157            1801     18.0450E-03     19.2502E-03
            1174            1801     18.0450E-03     19.2502E-03
            1175            1801     18.0450E-03     19.2502E-03
            1176            1802     19.3396E-03     20.5262E-03
            1158            1802     19.3396E-03     20.5262E-03
            1175            1802     19.3396E-03     20.5262E-03
            1157            1802     19.3396E-03     20.5262E-03
            1159            1803     20.9976E-03     22.1789E-03
            1176            1803     20.9976E-03     22.1789E-03
            1177            1803     20.9976E-03     22.1789E-03
            1158            1803     20.9976E-03     22.1789E-03
            1178            1804     23.1538E-03     24.3911E-03
            1177            1804     23.1538E-03     24.3911E-03
            1159            1804     23.1538E-03     24.3911E-03
            1160            1804     23.1538E-03     24.3911E-03
            1160            1805     26.4532E-03     27.8583E-03
            1161            1805     26.4532E-03     27.8583E-03
            1178            1805     26.4532E-03     27.8583E-03
            1179            1805     26.4532E-03     27.8583E-03
            1161            1806     32.4628E-03     33.6690E-03
            1179            1806     32.4628E-03     33.6690E-03
            1162            1806     32.4628E-03     33.6690E-03
            1180            1806     32.4628E-03     33.6690E-03
            1164            1807     15.1152E-03     15.3985E-03
            1163            1807     15.1152E-03     15.3985E-03
            1181            1807     15.1152E-03     15.3985E-03
            1182            1807     15.1152E-03     15.3985E-03
            1165            1808     14.4883E-03     14.7772E-03
            1164            1808     14.4883E-03     14.7772E-03
            1182            1808     14.4883E-03     14.7772E-03
            1183            1808     14.4883E-03     14.7772E-03
            1165            1809     14.9669E-03     15.3688E-03
            1183            1809     14.9669E-03     15.3688E-03
            1166            1809     14.9669E-03     15.3688E-03
            1184            1809     14.9669E-03     15.3688E-03
            1185            1810     15.7734E-03     16.2725E-03
            1166            1810     15.7734E-03     16.2725E-03
            1167            1810     15.7734E-03     16.2725E-03
            1184            1810     15.7734E-03     16.2725E-03
            1186            1811     16.7447E-03     17.3006E-03
            1185            1811     16.7447E-03     17.3006E-03
            1167            1811     16.7447E-03     17.3006E-03
            1168            1811     16.7447E-03     17.3006E-03
            1168            1812     17.8022E-03     18.3873E-03
            1186            1812     17.8022E-03     18.3873E-03
            1169            1812     17.8022E-03     18.3873E-03
            1187            1812     17.8022E-03     18.3873E-03
            1188            1813     18.8990E-03     19.4883E-03
            1170            1813     18.8990E-03     19.4883E-03
            1169            1813     18.8990E-03     19.4883E-03
            1187            1813     18.8990E-03     19.4883E-03
            1171            1814     20.0161E-03     20.5934E-03
            1188            1814     20.0161E-03     20.5934E-03
            1189            1814     20.0161E-03     20.5934E-03
            1170            1814     20.0161E-03     20.5934E-03
            1171            1815     21.1453E-03     21.6872E-03
            1172            1815     21.1453E-03     21.6872E-03
            1189            1815     21.1453E-03     21.6872E-03
            1190            1815     21.1453E-03     21.6872E-03
            1172            1816     22.2779E-03     22.7753E-03
            1173            1816     22.2779E-03     22.7753E-03
            1191            1816     22.2779E-03     22.7753E-03
            1190            1816     22.2779E-03     22.7753E-03
            1173            1817     23.4324E-03     23.8532E-03
            1174            1817     23.4324E-03     23.8532E-03
            1192            1817     23.4324E-03     23.8532E-03
            1191            1817     23.4324E-03     23.8532E-03
            1192            1818     24.5969E-03     24.9435E-03
            1193            1818     24.5969E-03     24.9435E-03
            1175            1818     24.5969E-03     24.9435E-03
            1174            1818     24.5969E-03     24.9435E-03
            1193            1819     25.8319E-03     26.0611E-03
            1175            1819     25.8319E-03     26.0611E-03
            1194            1819     25.8319E-03     26.0611E-03
            1176            1819     25.8319E-03     26.0611E-03
            1176            1820     27.1083E-03     27.2640E-03
            1177            1820     27.1083E-03     27.2640E-03
            1195            1820     27.1083E-03     27.2640E-03
            1194            1820     27.1083E-03     27.2640E-03
            1177            1821     28.6049E-03     28.6649E-03
            1178            1821     28.6049E-03     28.6649E-03
            1195            1821     28.6049E-03     28.6649E-03
            1196            1821     28.6049E-03     28.6649E-03
            1197            1822     30.2353E-03     30.3869E-03
            1178            1822     30.2353E-03     30.3869E-03
            1196            1822     30.2353E-03     30.3869E-03
            1179            1822     30.2353E-03     30.3869E-03
            1197            1823     33.0158E-03     33.8078E-03
            1180            1823     33.0158E-03     33.8078E-03
            1179            1823     33.0158E-03     33.8078E-03
            1198            1823     33.0158E-03     33.8078E-03
            1200            1824     15.0518E-03     15.5093E-03
            1181            1824     15.0518E-03     15.5093E-03
            1182            1824     15.0518E-03     15.5093E-03
            1199            1824     15.0518E-03     15.5093E-03
            1182            1825     16.8789E-03     16.6395E-03
            1183            1825     16.8789E-03     16.6395E-03
            1201            1825     16.8789E-03     16.6395E-03
            1200            1825     16.8789E-03     16.6395E-03
            1183            1826     18.4187E-03     18.1412E-03
            1201            1826     18.4187E-03     18.1412E-03
            1184            1826     18.4187E-03     18.1412E-03
            1202            1826     18.4187E-03     18.1412E-03
            1184            1827     20.0319E-03     19.8172E-03
            1202            1827     20.0319E-03     19.8172E-03
            1203            1827     20.0319E-03     19.8172E-03
            1185            1827     20.0319E-03     19.8172E-03
            1204            1828     21.6195E-03     21.4567E-03
            1185            1828     21.6195E-03     21.4567E-03
            1203            1828     21.6195E-03     21.4567E-03
            1186            1828     21.6195E-03     21.4567E-03
            1187            1829     23.2037E-03     23.0654E-03
            1204            1829     23.2037E-03     23.0654E-03
            1186            1829     23.2037E-03     23.0654E-03
            1205            1829     23.2037E-03     23.0654E-03
            1187            1830     24.7554E-03     24.6206E-03
            1188            1830     24.7554E-03     24.6206E-03
            1206            1830     24.7554E-03     24.6206E-03
            1205            1830     24.7554E-03     24.6206E-03
            1207            1831     26.2809E-03     26.1269E-03
            1188            1831     26.2809E-03     26.1269E-03
            1189            1831     26.2809E-03     26.1269E-03
            1206            1831     26.2809E-03     26.1269E-03
            1189            1832     27.7666E-03     27.5792E-03
            1190            1832     27.7666E-03     27.5792E-03
            1208            1832     27.7666E-03     27.5792E-03
            1207            1832     27.7666E-03     27.5792E-03
            1209            1833     29.2118E-03     28.9720E-03
            1190            1833     29.2118E-03     28.9720E-03
            1208            1833     29.2118E-03     28.9720E-03
            1191            1833     29.2118E-03     28.9720E-03
            1192            1834     30.5981E-03     30.2917E-03
            1191            1834     30.5981E-03     30.2917E-03
            1209            1834     30.5981E-03     30.2917E-03
            1210            1834     30.5981E-03     30.2917E-03
            1210            1835     31.9076E-03     31.5196E-03
            1193            1835     31.9076E-03     31.5196E-03
            1192            1835     31.9076E-03     31.5196E-03
            1211            1835     31.9076E-03     31.5196E-03
            1193            1836     33.1085E-03     32.6233E-03
            1211            1836     33.1085E-03     32.6233E-03
            1212            1836     33.1085E-03     32.6233E-03
            1194            1836     33.1085E-03     32.6233E-03
            1213            1837     34.1481E-03     33.5692E-03
            1195            1837     34.1481E-03     33.5692E-03
            1194            1837     34.1481E-03     33.5692E-03
            1212            1837     34.1481E-03     33.5692E-03
            1196            1838     34.9564E-03     34.2891E-03
            1213            1838     34.9564E-03     34.2891E-03
            1214            1838     34.9564E-03     34.2891E-03
            1195            1838     34.9564E-03     34.2891E-03
            1197            1839     35.3739E-03     34.6778E-03
            1196            1839     35.3739E-03     34.6778E-03
            1215            1839     35.3739E-03     34.6778E-03
            1214            1839     35.3739E-03     34.6778E-03
            1198            1840     35.3673E-03     34.5364E-03
            1216            1840     35.3673E-03     34.5364E-03
            1197            1840     35.3673E-03     34.5364E-03
            1215            1840     35.3673E-03     34.5364E-03
            1218            1841     14.2313E-03     15.4745E-03
            1199            1841     14.2313E-03     15.4745E-03
            1217            1841     14.2313E-03     15.4745E-03
            1200            1841     14.2313E-03     15.4745E-03
            1200            1842     16.5530E-03     17.2004E-03
            1201            1842     16.5530E-03     17.2004E-03
            1218            1842     16.5530E-03     17.2004E-03
            1219            1842     16.5530E-03     17.2004E-03
            1219            1843     18.5926E-03     18.7749E-03
            1202            1843     18.5926E-03     18.7749E-03
            1220            1843     18.5926E-03     18.7749E-03
            1201            1843     18.5926E-03     18.7749E-03
            1221            1844     20.4236E-03     20.4957E-03
            1202            1844     20.4236E-03     20.4957E-03
            1203            1844     20.4236E-03     20.4957E-03
            1220            1844     20.4236E-03     20.4957E-03
            1204            1845     22.1477E-03     22.1915E-03
            1221            1845     22.1477E-03     22.1915E-03
            1203            1845     22.1477E-03     22.1915E-03
            1222            1845     22.1477E-03     22.1915E-03
            1205            1846     23.8076E-03     23.8480E-03
            1223            1846     23.8076E-03     23.8480E-03
            1204            1846     23.8076E-03     23.8480E-03
            1222            1846     23.8076E-03     23.8480E-03
            1224            1847     25.4261E-03     25.4651E-03
            1205            1847     25.4261E-03     25.4651E-03
            1206            1847     25.4261E-03     25.4651E-03
            1223            1847     25.4261E-03     25.4651E-03
            1206            1848     27.0114E-03     27.0476E-03
            1224            1848     27.0114E-03     27.0476E-03
            1207            1848     27.0114E-03     27.0476E-03
            1225            1848     27.0114E-03     27.0476E-03
            1207            1849     28.5747E-03     28.6005E-03
            1208            1849     28.5747E-03     28.6005E-03
            1226            1849     28.5747E-03     28.6005E-03
            1225            1849     28.5747E-03     28.6005E-03
            1208            1850     30.1040E-03     30.1213E-03
            1209            1850     30.1040E-03     30.1213E-03
            1226            1850     30.1040E-03     30.1213E-03
            1227            1850     30.1040E-03     30.1213E-03
            1210            1851     31.5945E-03     31.5987E-03
            1228            1851     31.5945E-03     31.5987E-03
            1209            1851     31.5945E-03     31.5987E-03
            1227            1851     31.5945E-03     31.5987E-03
            1229            1852     33.0110E-03     33.0145E-03
            1228            1852     33.0110E-03     33.0145E-03
            1211            1852     33.0110E-03     33.0145E-03
            1210            1852     33.0110E-03     33.0145E-03
            1229            1853     34.3157E-03     34.3303E-03
            1211            1853     34.3157E-03     34.3303E-03
            1230            1853     34.3157E-03     34.3303E-03
            1212            1853     34.3157E-03     34.3303E-03
            1212            1854     35.4384E-03     35.4981E-03
            1230            1854     35.4384E-03     35.4981E-03
            1231            1854     35.4384E-03     35.4981E-03
            1213            1854     35.4384E-03     35.4981E-03
            1232            1855     36.2886E-03     36.4365E-03
            1213            1855     36.2886E-03     36.4365E-03
            1231            1855     36.2886E-03     36.4365E-03
            1214            1855     36.2886E-03     36.4365E-03
            1215            1856     36.7722E-03     37.0119E-03
            1232            1856     36.7722E-03     37.0119E-03
            1233            1856     36.7722E-03     37.0119E-03
            1214            1856     36.7722E-03     37.0119E-03
            1234            1857     37.4064E-03     37.5143E-03
            1216            1857     37.4064E-03     37.5143E-03
            1233            1857     37.4064E-03     37.5143E-03
            1215            1857     37.4064E-03     37.5143E-03
            1235            1858     14.4072E-03     15.3209E-03
            1217            1858     14.4072E-03     15.3209E-03
            1236            1858     14.4072E-03     15.3209E-03
            1218            1858     14.4072E-03     15.3209E-03
            1236            1859     16.5662E-03     17.5194E-03
            1219            1859     16.5662E-03     17.5194E-03
            1218            1859     16.5662E-03     17.5194E-03
            1237            1859     16.5662E-03     17.5194E-03
            1238            1860     18.7828E-03     19.4051E-03
            1219            1860     18.7828E-03     19.4051E-03
            1237            1860     18.7828E-03     19.4051E-03
            1220            1860     18.7828E-03     19.4051E-03
            1238            1861     20.7597E-03     21.1426E-03
            1239            1861     20.7597E-03     21.1426E-03
            1221            1861     20.7597E-03     21.1426E-03
            1220            1861     20.7597E-03     21.1426E-03
            1221            1862     22.5763E-03     22.8737E-03
            1240            1862     22.5763E-03     22.8737E-03
            1222            1862     22.5763E-03     22.8737E-03
            1239            1862     22.5763E-03     22.8737E-03
            1222            1863     24.2888E-03     24.5449E-03
            1240            1863     24.2888E-03     24.5449E-03
            1223            1863     24.2888E-03     24.5449E-03
            1241            1863     24.2888E-03     24.5449E-03
            1223            1864     25.9449E-03     26.1919E-03
            1224            1864     25.9449E-03     26.1919E-03
            1242            1864     25.9449E-03     26.1919E-03
            1241            1864     25.9449E-03     26.1919E-03
            1224            1865     27.5732E-03     27.8201E-03
            1242            1865     27.5732E-03     27.8201E-03
            1225            1865     27.5732E-03     27.8201E-03
            1243            1865     27.5732E-03     27.8201E-03
            1244            1866     29.1792E-03     29.4393E-03
            1225            1866     29.1792E-03     29.4393E-03
            1226            1866     29.1792E-03     29.4393E-03
            1243            1866     29.1792E-03     29.4393E-03
            1226            1867     30.7743E-03     31.0505E-03
            1244            1867     30.7743E-03     31.0505E-03
            1227            1867     30.7743E-03     31.0505E-03
            1245            1867     30.7743E-03     31.0505E-03
            1228            1868     32.3348E-03     32.6462E-03
            1227            1868     32.3348E-03     32.6462E-03
            1245            1868     32.3348E-03     32.6462E-03
            1246            1868     32.3348E-03     32.6462E-03
            1246            1869     33.8452E-03     34.2017E-03
            1247            1869     33.8452E-03     34.2017E-03
            1229            1869     33.8452E-03     34.2017E-03
            1228            1869     33.8452E-03     34.2017E-03
            1248            1870     35.2521E-03     35.6810E-03
            1247            1870     35.2521E-03     35.6810E-03
            1229            1870     35.2521E-03     35.6810E-03
            1230            1870     35.2521E-03     35.6810E-03
            1231            1871     36.4897E-03     37.0199E-03
            1230            1871     36.4897E-03     37.0199E-03
            1249            1871     36.4897E-03     37.0199E-03
            1248            1871     36.4897E-03     37.0199E-03
            1249            1872     37.5052E-03     38.1181E-03
            1231            1872     37.5052E-03     38.1181E-03
            1250            1872     37.5052E-03     38.1181E-03
            1232            1872     37.5052E-03     38.1181E-03
            1251            1873     38.3392E-03     38.9792E-03
            1232            1873     38.3392E-03     38.9792E-03
            1233            1873     38.3392E-03     38.9792E-03
            1250            1873     38.3392E-03     38.9792E-03
            1233            1874     39.4411E-03     39.8221E-03
            1252            1874     39.4411E-03     39.8221E-03
            1234            1874     39.4411E-03     39.8221E-03
            1251            1874     39.4411E-03     39.8221E-03
            1236            1875     14.8041E-03     15.8651E-03
            1254            1875     14.8041E-03     15.8651E-03
            1235            1875     14.8041E-03     15.8651E-03
            1253            1875     14.8041E-03     15.8651E-03
            1237            1876     16.9406E-03     17.8734E-03
            1254            1876     16.9406E-03     17.8734E-03
            1255            1876     16.9406E-03     17.8734E-03
            1236            1876     16.9406E-03     17.8734E-03
            1237            1877     19.0652E-03     19.9064E-03
            1255            1877     19.0652E-03     19.9064E-03
            1238            1877     19.0652E-03     19.9064E-03
            1256            1877     19.0652E-03     19.9064E-03
            1238            1878     21.0642E-03     21.7226E-03
            1239            1878     21.0642E-03     21.7226E-03
            1257            1878     21.0642E-03     21.7226E-03
            1256            1878     21.0642E-03     21.7226E-03
            1239            1879     22.8892E-03     23.4218E-03
            1258            1879     22.8892E-03     23.4218E-03
            1257            1879     22.8892E-03     23.4218E-03
            1240            1879     22.8892E-03     23.4218E-03
            1258            1880     24.6061E-03     25.0870E-03
            1241            1880     24.6061E-03     25.0870E-03
            1259            1880     24.6061E-03     25.0870E-03
            1240            1880     24.6061E-03     25.0870E-03
            1242            1881     26.2677E-03     26.7249E-03
            1259            1881     26.2677E-03     26.7249E-03
            1241            1881     26.2677E-03     26.7249E-03
            1260            1881     26.2677E-03     26.7249E-03
            1261            1882     27.9004E-03     28.3642E-03
            1260            1882     27.9004E-03     28.3642E-03
            1243            1882     27.9004E-03     28.3642E-03
            1242            1882     27.9004E-03     28.3642E-03
            1262            1883     29.5330E-03     30.0157E-03
            1261            1883     29.5330E-03     30.0157E-03
            1244            1883     29.5330E-03     30.0157E-03
            1243            1883     29.5330E-03     30.0157E-03
            1263            1884     31.1570E-03     31.6809E-03
            1244            1884     31.1570E-03     31.6809E-03
            1245            1884     31.1570E-03     31.6809E-03
            1262            1884     31.1570E-03     31.6809E-03
            1264            1885     32.7821E-03     33.3552E-03
            1245            1885     32.7821E-03     33.3552E-03
            1263            1885     32.7821E-03     33.3552E-03
            1246            1885     32.7821E-03     33.3552E-03
            1265            1886     34.3736E-03     35.0215E-03
            1246            1886     34.3736E-03     35.0215E-03
            1264            1886     34.3736E-03     35.0215E-03
            1247            1886     34.3736E-03     35.0215E-03
            1266            1887     35.9068E-03     36.6385E-03
            1265            1887     35.9068E-03     36.6385E-03
            1247            1887     35.9068E-03     36.6385E-03
            1248            1887     35.9068E-03     36.6385E-03
            1248            1888     37.3353E-03     38.1408E-03
            1266            1888     37.3353E-03     38.1408E-03
            1249            1888     37.3353E-03     38.1408E-03
            1267            1888     37.3353E-03     38.1408E-03
            1250            1889     38.6144E-03     39.4718E-03
            1249            1889     38.6144E-03     39.4718E-03
            1267            1889     38.6144E-03     39.4718E-03
            1268            1889     38.6144E-03     39.4718E-03
            1250            1890     39.8856E-03     40.6148E-03
            1268            1890     39.8856E-03     40.6148E-03
            1251            1890     39.8856E-03     40.6148E-03
            1269            1890     39.8856E-03     40.6148E-03
            1270            1891     41.2768E-03     41.7187E-03
            1251            1891     41.2768E-03     41.7187E-03
            1252            1891     41.2768E-03     41.7187E-03
            1269            1891     41.2768E-03     41.7187E-03
            1271            1892     15.4545E-03     16.4997E-03
            1272            1892     15.4545E-03     16.4997E-03
            1254            1892     15.4545E-03     16.4997E-03
            1253            1892     15.4545E-03     16.4997E-03
            1273            1893     17.4399E-03     18.4896E-03
            1254            1893     17.4399E-03     18.4896E-03
            1272            1893     17.4399E-03     18.4896E-03
            1255            1893     17.4399E-03     18.4896E-03
            1274            1894     19.4688E-03     20.4007E-03
            1255            1894     19.4688E-03     20.4007E-03
            1273            1894     19.4688E-03     20.4007E-03
            1256            1894     19.4688E-03     20.4007E-03
            1274            1895     21.3434E-03     22.1795E-03
            1257            1895     21.3434E-03     22.1795E-03
            1256            1895     21.3434E-03     22.1795E-03
            1275            1895     21.3434E-03     22.1795E-03
            1275            1896     23.0925E-03     23.8306E-03
            1276            1896     23.0925E-03     23.8306E-03
            1258            1896     23.0925E-03     23.8306E-03
            1257            1896     23.0925E-03     23.8306E-03
            1258            1897     24.7557E-03     25.4319E-03
            1276            1897     24.7557E-03     25.4319E-03
            1277            1897     24.7557E-03     25.4319E-03
            1259            1897     24.7557E-03     25.4319E-03
            1259            1898     26.3721E-03     27.0296E-03
            1260            1898     26.3721E-03     27.0296E-03
            1277            1898     26.3721E-03     27.0296E-03
            1278            1898     26.3721E-03     27.0296E-03
            1278            1899     27.9898E-03     28.6505E-03
            1279            1899     27.9898E-03     28.6505E-03
            1260            1899     27.9898E-03     28.6505E-03
            1261            1899     27.9898E-03     28.6505E-03
            1280            1900     29.6097E-03     30.2992E-03
            1279            1900     29.6097E-03     30.2992E-03
            1261            1900     29.6097E-03     30.2992E-03
            1262            1900     29.6097E-03     30.2992E-03
            1262            1901     31.2549E-03     31.9860E-03
            1280            1901     31.2549E-03     31.9860E-03
            1281            1901     31.2549E-03     31.9860E-03
            1263            1901     31.2549E-03     31.9860E-03
            1282            1902     32.9114E-03     33.7065E-03
            1281            1902     32.9114E-03     33.7065E-03
            1264            1902     32.9114E-03     33.7065E-03
            1263            1902     32.9114E-03     33.7065E-03
            1283            1903     34.5968E-03     35.4562E-03
            1264            1903     34.5968E-03     35.4562E-03
            1282            1903     34.5968E-03     35.4562E-03
            1265            1903     34.5968E-03     35.4562E-03
            1283            1904     36.2788E-03     37.2112E-03
            1284            1904     36.2788E-03     37.2112E-03
            1266            1904     36.2788E-03     37.2112E-03
            1265            1904     36.2788E-03     37.2112E-03
            1285            1905     37.9424E-03     38.9224E-03
            1284            1905     37.9424E-03     38.9224E-03
            1267            1905     37.9424E-03     38.9224E-03
            1266            1905     37.9424E-03     38.9224E-03
            1268            1906     39.5989E-03     40.5295E-03
            1285            1906     39.5989E-03     40.5295E-03
            1286            1906     39.5989E-03     40.5295E-03
            1267            1906     39.5989E-03     40.5295E-03
            1269            1907     41.2239E-03     42.0331E-03
            1287            1907     41.2239E-03     42.0331E-03
            1268            1907     41.2239E-03     42.0331E-03
            1286            1907     41.2239E-03     42.0331E-03
            1287            1908     42.9680E-03     43.5046E-03
            1269            1908     42.9680E-03     43.5046E-03
            1288            1908     42.9680E-03     43.5046E-03
            1270            1908     42.9680E-03     43.5046E-03
            1272            1909     16.1974E-03     17.3170E-03
            1271            1909     16.1974E-03     17.3170E-03
            1289            1909     16.1974E-03     17.3170E-03
            1290            1909     16.1974E-03     17.3170E-03
            1272            1910     18.1120E-03     19.2036E-03
            1273            1910     18.1120E-03     19.2036E-03
            1290            1910     18.1120E-03     19.2036E-03
            1291            1910     18.1120E-03     19.2036E-03
            1274            1911     19.9143E-03     20.9523E-03
            1292            1911     19.9143E-03     20.9523E-03
            1291            1911     19.9143E-03     20.9523E-03
            1273            1911     19.9143E-03     20.9523E-03
            1274            1912     21.6049E-03     22.5596E-03
            1292            1912     21.6049E-03     22.5596E-03
            1275            1912     21.6049E-03     22.5596E-03
            1293            1912     21.6049E-03     22.5596E-03
            1294            1913     23.1939E-03     24.0840E-03
            1275            1913     23.1939E-03     24.0840E-03
            1293            1913     23.1939E-03     24.0840E-03
            1276            1913     23.1939E-03     24.0840E-03
            1277            1914     24.7312E-03     25.5773E-03
            1295            1914     24.7312E-03     25.5773E-03
            1276            1914     24.7312E-03     25.5773E-03
            1294            1914     24.7312E-03     25.5773E-03
            1295            1915     26.2846E-03     27.1138E-03
            1277            1915     26.2846E-03     27.1138E-03
            1296            1915     26.2846E-03     27.1138E-03
            1278            1915     26.2846E-03     27.1138E-03
            1296            1916     27.8471E-03     28.6845E-03
            1278            1916     27.8471E-03     28.6845E-03
            1297            1916     27.8471E-03     28.6845E-03
            1279            1916     27.8471E-03     28.6845E-03
            1279            1917     29.4443E-03     30.3075E-03
            1280            1917     29.4443E-03     30.3075E-03
            1297            1917     29.4443E-03     30.3075E-03
            1298            1917     29.4443E-03     30.3075E-03
            1298            1918     31.0728E-03     31.9801E-03
            1280            1918     31.0728E-03     31.9801E-03
            1281            1918     31.0728E-03     31.9801E-03
            1299            1918     31.0728E-03     31.9801E-03
            1282            1919     32.7581E-03     33.7174E-03
            1299            1919     32.7581E-03     33.7174E-03
            1300            1919     32.7581E-03     33.7174E-03
            1281            1919     32.7581E-03     33.7174E-03
            1300            1920     34.4968E-03     35.5203E-03
            1282            1920     34.4968E-03     35.5203E-03
            1283            1920     34.4968E-03     35.5203E-03
            1301            1920     34.4968E-03     35.5203E-03
            1284            1921     36.3467E-03     37.4034E-03
            1283            1921     36.3467E-03     37.4034E-03
            1302            1921     36.3467E-03     37.4034E-03
            1301            1921     36.3467E-03     37.4034E-03
            1284            1922     38.2881E-03     39.3602E-03
            1303            1922     38.2881E-03     39.3602E-03
            1285            1922     38.2881E-03     39.3602E-03
            1302            1922     38.2881E-03     39.3602E-03
            1304            1923     40.3122E-03     41.3334E-03
            1285            1923     40.3122E-03     41.3334E-03
            1303            1923     40.3122E-03     41.3334E-03
            1286            1923     40.3122E-03     41.3334E-03
            1286            1924     42.4263E-03     43.2559E-03
            1304            1924     42.4263E-03     43.2559E-03
            1287            1924     42.4263E-03     43.2559E-03
            1305            1924     42.4263E-03     43.2559E-03
            1288            1925     44.5139E-03     45.1797E-03
            1287            1925     44.5139E-03     45.1797E-03
            1305            1925     44.5139E-03     45.1797E-03
            1306            1925     44.5139E-03     45.1797E-03
            1307            1926     17.1569E-03     18.3279E-03
            1308            1926     17.1569E-03     18.3279E-03
            1290            1926     17.1569E-03     18.3279E-03
            1289            1926     17.1569E-03     18.3279E-03
            1308            1927     18.8768E-03     20.0277E-03
            1309            1927     18.8768E-03     20.0277E-03
            1290            1927     18.8768E-03     20.0277E-03
            1291            1927     18.8768E-03     20.0277E-03
            1309            1928     20.4296E-03     21.5411E-03
            1291            1928     20.4296E-03     21.5411E-03
            1292            1928     20.4296E-03     21.5411E-03
            1310            1928     20.4296E-03     21.5411E-03
            1292            1929     21.8199E-03     22.8726E-03
            1310            1929     21.8199E-03     22.8726E-03
            1311            1929     21.8199E-03     22.8726E-03
            1293            1929     21.8199E-03     22.8726E-03
            1312            1930     23.1567E-03     24.1649E-03
            1294            1930     23.1567E-03     24.1649E-03
            1293            1930     23.1567E-03     24.1649E-03
            1311            1930     23.1567E-03     24.1649E-03
            1295            1931     24.5720E-03     25.5599E-03
            1313            1931     24.5720E-03     25.5599E-03
            1312            1931     24.5720E-03     25.5599E-03
            1294            1931     24.5720E-03     25.5599E-03
            1296            1932     26.0235E-03     27.0037E-03
            1314            1932     26.0235E-03     27.0037E-03
            1295            1932     26.0235E-03     27.0037E-03
            1313            1932     26.0235E-03     27.0037E-03
            1297            1933     27.5268E-03     28.5169E-03
            1314            1933     27.5268E-03     28.5169E-03
            1315            1933     27.5268E-03     28.5169E-03
            1296            1933     27.5268E-03     28.5169E-03
            1316            1934     29.0733E-03     30.0850E-03
            1315            1934     29.0733E-03     30.0850E-03
            1297            1934     29.0733E-03     30.0850E-03
            1298            1934     29.0733E-03     30.0850E-03
            1317            1935     30.6736E-03     31.7201E-03
            1316            1935     30.6736E-03     31.7201E-03
            1299            1935     30.6736E-03     31.7201E-03
            1298            1935     30.6736E-03     31.7201E-03
            1318            1936     32.3415E-03     33.4301E-03
            1317            1936     32.3415E-03     33.4301E-03
            1300            1936     32.3415E-03     33.4301E-03
            1299            1936     32.3415E-03     33.4301E-03
            1319            1937     34.1242E-03     35.2528E-03
            1300            1937     34.1242E-03     35.2528E-03
            1318            1937     34.1242E-03     35.2528E-03
            1301            1937     34.1242E-03     35.2528E-03
            1302            1938     36.0484E-03     37.2148E-03
            1301            1938     36.0484E-03     37.2148E-03
            1319            1938     36.0484E-03     37.2148E-03
            1320            1938     36.0484E-03     37.2148E-03
            1321            1939     38.2711E-03     39.3897E-03
            1320            1939     38.2711E-03     39.3897E-03
            1302            1939     38.2711E-03     39.3897E-03
            1303            1939     38.2711E-03     39.3897E-03
            1321            1940     40.7457E-03     41.7992E-03
            1303            1940     40.7457E-03     41.7992E-03
            1322            1940     40.7457E-03     41.7992E-03
            1304            1940     40.7457E-03     41.7992E-03
            1304            1941     43.3467E-03     44.3207E-03
            1323            1941     43.3467E-03     44.3207E-03
            1305            1941     43.3467E-03     44.3207E-03
            1322            1941     43.3467E-03     44.3207E-03
            1305            1942     46.0549E-03     46.7063E-03
            1324            1942     46.0549E-03     46.7063E-03
            1323            1942     46.0549E-03     46.7063E-03
            1306            1942     46.0549E-03     46.7063E-03
            1325            1943     18.3454E-03     19.5622E-03
            1308            1943     18.3454E-03     19.5622E-03
            1326            1943     18.3454E-03     19.5622E-03
            1307            1943     18.3454E-03     19.5622E-03
            1309            1944     19.8824E-03     21.1066E-03
            1308            1944     19.8824E-03     21.1066E-03
            1327            1944     19.8824E-03     21.1066E-03
            1326            1944     19.8824E-03     21.1066E-03
            1328            1945     20.9469E-03     22.1003E-03
            1309            1945     20.9469E-03     22.1003E-03
            1310            1945     20.9469E-03     22.1003E-03
            1327            1945     20.9469E-03     22.1003E-03
            1329            1946     21.8647E-03     22.9897E-03
            1311            1946     21.8647E-03     22.9897E-03
            1310            1946     21.8647E-03     22.9897E-03
            1328            1946     21.8647E-03     22.9897E-03
            1330            1947     23.0182E-03     24.1385E-03
            1311            1947     23.0182E-03     24.1385E-03
            1312            1947     23.0182E-03     24.1385E-03
            1329            1947     23.0182E-03     24.1385E-03
            1330            1948     24.2858E-03     25.4011E-03
            1313            1948     24.2858E-03     25.4011E-03
            1331            1948     24.2858E-03     25.4011E-03
            1312            1948     24.2858E-03     25.4011E-03
            1331            1949     25.6482E-03     26.7703E-03
            1332            1949     25.6482E-03     26.7703E-03
            1313            1949     25.6482E-03     26.7703E-03
            1314            1949     25.6482E-03     26.7703E-03
            1332            1950     27.0818E-03     28.2101E-03
            1314            1950     27.0818E-03     28.2101E-03
            1333            1950     27.0818E-03     28.2101E-03
            1315            1950     27.0818E-03     28.2101E-03
            1316            1951     28.5680E-03     29.7117E-03
            1333            1951     28.5680E-03     29.7117E-03
            1315            1951     28.5680E-03     29.7117E-03
            1334            1951     28.5680E-03     29.7117E-03
            1317            1952     30.1188E-03     31.2776E-03
            1335            1952     30.1188E-03     31.2776E-03
            1316            1952     30.1188E-03     31.2776E-03
            1334            1952     30.1188E-03     31.2776E-03
            1317            1953     31.7465E-03     32.9303E-03
            1318            1953     31.7465E-03     32.9303E-03
            1335            1953     31.7465E-03     32.9303E-03
            1336            1953     31.7465E-03     32.9303E-03
            1337            1954     33.5001E-03     34.7047E-03
            1318            1954     33.5001E-03     34.7047E-03
            1319            1954     33.5001E-03     34.7047E-03
            1336            1954     33.5001E-03     34.7047E-03
            1319            1955     35.4671E-03     36.6850E-03
            1338            1955     35.4671E-03     36.6850E-03
            1337            1955     35.4671E-03     36.6850E-03
            1320            1955     35.4671E-03     36.6850E-03
            1338            1956     37.7318E-03     38.9523E-03
            1339            1956     37.7318E-03     38.9523E-03
            1321            1956     37.7318E-03     38.9523E-03
            1320            1956     37.7318E-03     38.9523E-03
            1339            1957     40.6651E-03     41.7212E-03
            1321            1957     40.6651E-03     41.7212E-03
            1340            1957     40.6651E-03     41.7212E-03
            1322            1957     40.6651E-03     41.7212E-03
            1323            1958     44.0687E-03     44.9537E-03
            1322            1958     44.0687E-03     44.9537E-03
            1340            1958     44.0687E-03     44.9537E-03
            1341            1958     44.0687E-03     44.9537E-03
            1323            1959     47.3329E-03     48.2962E-03
            1324            1959     47.3329E-03     48.2962E-03
            1341            1959     47.3329E-03     48.2962E-03
            1342            1959     47.3329E-03     48.2962E-03
            1326            1960     20.2354E-03     21.5565E-03
            1343            1960     20.2354E-03     21.5565E-03
            1344            1960     20.2354E-03     21.5565E-03
            1325            1960     20.2354E-03     21.5565E-03
            1344            1961     21.0147E-03     22.1974E-03
            1326            1961     21.0147E-03     22.1974E-03
            1327            1961     21.0147E-03     22.1974E-03
            1345            1961     21.0147E-03     22.1974E-03
            1345            1962     21.1153E-03     22.2873E-03
            1346            1962     21.1153E-03     22.2873E-03
            1328            1962     21.1153E-03     22.2873E-03
            1327            1962     21.1153E-03     22.2873E-03
            1328            1963     21.7851E-03     22.9932E-03
            1347            1963     21.7851E-03     22.9932E-03
            1346            1963     21.7851E-03     22.9932E-03
            1329            1963     21.7851E-03     22.9932E-03
            1329            1964     22.7720E-03     24.0034E-03
            1330            1964     22.7720E-03     24.0034E-03
            1347            1964     22.7720E-03     24.0034E-03
            1348            1964     22.7720E-03     24.0034E-03
            1349            1965     23.9261E-03     25.1816E-03
            1331            1965     23.9261E-03     25.1816E-03
            1330            1965     23.9261E-03     25.1816E-03
            1348            1965     23.9261E-03     25.1816E-03
            1331            1966     25.2169E-03     26.4817E-03
            1350            1966     25.2169E-03     26.4817E-03
            1349            1966     25.2169E-03     26.4817E-03
            1332            1966     25.2169E-03     26.4817E-03
            1351            1967     26.5752E-03     27.8474E-03
            1333            1967     26.5752E-03     27.8474E-03
            1332            1967     26.5752E-03     27.8474E-03
            1350            1967     26.5752E-03     27.8474E-03
            1352            1968     28.0055E-03     29.2734E-03
            1333            1968     28.0055E-03     29.2734E-03
            1334            1968     28.0055E-03     29.2734E-03
            1351            1968     28.0055E-03     29.2734E-03
            1353            1969     29.4873E-03     30.7523E-03
            1352            1969     29.4873E-03     30.7523E-03
            1334            1969     29.4873E-03     30.7523E-03
            1335            1969     29.4873E-03     30.7523E-03
            1335            1970     31.0599E-03     32.3113E-03
            1353            1970     31.0599E-03     32.3113E-03
            1336            1970     31.0599E-03     32.3113E-03
            1354            1970     31.0599E-03     32.3113E-03
            1355            1971     32.7444E-03     33.9923E-03
            1354            1971     32.7444E-03     33.9923E-03
            1336            1971     32.7444E-03     33.9923E-03
            1337            1971     32.7444E-03     33.9923E-03
            1355            1972     34.6463E-03     35.8807E-03
            1338            1972     34.6463E-03     35.8807E-03
            1356            1972     34.6463E-03     35.8807E-03
            1337            1972     34.6463E-03     35.8807E-03
            1338            1973     36.8882E-03     38.1220E-03
            1339            1973     36.8882E-03     38.1220E-03
            1356            1973     36.8882E-03     38.1220E-03
            1357            1973     36.8882E-03     38.1220E-03
            1357            1974     39.7047E-03     40.9263E-03
            1339            1974     39.7047E-03     40.9263E-03
            1358            1974     39.7047E-03     40.9263E-03
            1340            1974     39.7047E-03     40.9263E-03
            1359            1975     43.9262E-03     44.8245E-03
            1358            1975     43.9262E-03     44.8245E-03
            1340            1975     43.9262E-03     44.8245E-03
            1341            1975     43.9262E-03     44.8245E-03
            1359            1976     48.7145E-03     49.0765E-03
            1341            1976     48.7145E-03     49.0765E-03
            1342            1976     48.7145E-03     49.0765E-03
            1360            1976     48.7145E-03     49.0765E-03
            1362            1977     22.6217E-03     23.6691E-03
            1361            1977     22.6217E-03     23.6691E-03
            1344            1977     22.6217E-03     23.6691E-03
            1343            1977     22.6217E-03     23.6691E-03
            1362            1978     21.3176E-03     22.4109E-03
            1363            1978     21.3176E-03     22.4109E-03
            1344            1978     21.3176E-03     22.4109E-03
            1345            1978     21.3176E-03     22.4109E-03
            1364            1979     20.9964E-03     22.2243E-03
            1345            1979     20.9964E-03     22.2243E-03
            1346            1979     20.9964E-03     22.2243E-03
            1363            1979     20.9964E-03     22.2243E-03
            1364            1980     21.6023E-03     22.9133E-03
            1346            1980     21.6023E-03     22.9133E-03
            1347            1980     21.6023E-03     22.9133E-03
            1365            1980     21.6023E-03     22.9133E-03
            1366            1981     22.4572E-03     23.8347E-03
            1365            1981     22.4572E-03     23.8347E-03
            1348            1981     22.4572E-03     23.8347E-03
            1347            1981     22.4572E-03     23.8347E-03
            1348            1982     23.5672E-03     24.9809E-03
            1367            1982     23.5672E-03     24.9809E-03
            1349            1982     23.5672E-03     24.9809E-03
            1366            1982     23.5672E-03     24.9809E-03
            1368            1983     24.7747E-03     26.2083E-03
            1349            1983     24.7747E-03     26.2083E-03
            1367            1983     24.7747E-03     26.2083E-03
            1350            1983     24.7747E-03     26.2083E-03
            1368            1984     26.0821E-03     27.5124E-03
            1350            1984     26.0821E-03     27.5124E-03
            1369            1984     26.0821E-03     27.5124E-03
            1351            1984     26.0821E-03     27.5124E-03
            1352            1985     27.4390E-03     28.8520E-03
            1369            1985     27.4390E-03     28.8520E-03
            1370            1985     27.4390E-03     28.8520E-03
            1351            1985     27.4390E-03     28.8520E-03
            1371            1986     28.8687E-03     30.2428E-03
            1352            1986     28.8687E-03     30.2428E-03
            1370            1986     28.8687E-03     30.2428E-03
            1353            1986     28.8687E-03     30.2428E-03
            1353            1987     30.3623E-03     31.6875E-03
            1371            1987     30.3623E-03     31.6875E-03
            1354            1987     30.3623E-03     31.6875E-03
            1372            1987     30.3623E-03     31.6875E-03
            1354            1988     31.9882E-03     33.2463E-03
            1372            1988     31.9882E-03     33.2463E-03
            1373            1988     31.9882E-03     33.2463E-03
            1355            1988     31.9882E-03     33.2463E-03
            1355            1989     33.7713E-03     34.9708E-03
            1356            1989     33.7713E-03     34.9708E-03
            1373            1989     33.7713E-03     34.9708E-03
            1374            1989     33.7713E-03     34.9708E-03
            1375            1990     35.9005E-03     37.0499E-03
            1356            1990     35.9005E-03     37.0499E-03
            1374            1990     35.9005E-03     37.0499E-03
            1357            1990     35.9005E-03     37.0499E-03
            1376            1991     38.4778E-03     39.6462E-03
            1358            1991     38.4778E-03     39.6462E-03
            1357            1991     38.4778E-03     39.6462E-03
            1375            1991     38.4778E-03     39.6462E-03
            1358            1992     42.2115E-03     43.5239E-03
            1377            1992     42.2115E-03     43.5239E-03
            1376            1992     42.2115E-03     43.5239E-03
            1359            1992     42.2115E-03     43.5239E-03
            1359            1993     48.4638E-03     49.5257E-03
            1360            1993     48.4638E-03     49.5257E-03
            1377            1993     48.4638E-03     49.5257E-03
            1378            1993     48.4638E-03     49.5257E-03
            1380            1994     23.8589E-03     23.6608E-03
            1362            1994     23.8589E-03     23.6608E-03
            1361            1994     23.8589E-03     23.6608E-03
            1379            1994     23.8589E-03     23.6608E-03
            1363            1995     22.9050E-03     23.1678E-03
            1362            1995     22.9050E-03     23.1678E-03
            1380            1995     22.9050E-03     23.1678E-03
            1381            1995     22.9050E-03     23.1678E-03
            1364            1996     23.5768E-03     24.1064E-03
            1381            1996     23.5768E-03     24.1064E-03
            1363            1996     23.5768E-03     24.1064E-03
            1382            1996     23.5768E-03     24.1064E-03
            1365            1997     24.7487E-03     25.4521E-03
            1383            1997     24.7487E-03     25.4521E-03
            1364            1997     24.7487E-03     25.4521E-03
            1382            1997     24.7487E-03     25.4521E-03
            1366            1998     26.1503E-03     26.9541E-03
            1384            1998     26.1503E-03     26.9541E-03
            1383            1998     26.1503E-03     26.9541E-03
            1365            1998     26.1503E-03     26.9541E-03
            1366            1999     27.6810E-03     28.5339E-03
            1385            1999     27.6810E-03     28.5339E-03
            1384            1999     27.6810E-03     28.5339E-03
            1367            1999     27.6810E-03     28.5339E-03
            1367            2000     29.2673E-03     30.1296E-03
            1386            2000     29.2673E-03     30.1296E-03
            1385            2000     29.2673E-03     30.1296E-03
            1368            2000     29.2673E-03     30.1296E-03
            1387            2001     30.8828E-03     31.7276E-03
            1369            2001     30.8828E-03     31.7276E-03
            1386            2001     30.8828E-03     31.7276E-03
            1368            2001     30.8828E-03     31.7276E-03
            1388            2002     32.5125E-03     33.3042E-03
            1370            2002     32.5125E-03     33.3042E-03
            1369            2002     32.5125E-03     33.3042E-03
            1387            2002     32.5125E-03     33.3042E-03
            1389            2003     34.1427E-03     34.8650E-03
            1388            2003     34.1427E-03     34.8650E-03
            1370            2003     34.1427E-03     34.8650E-03
            1371            2003     34.1427E-03     34.8650E-03
            1372            2004     35.7936E-03     36.3993E-03
            1390            2004     35.7936E-03     36.3993E-03
            1371            2004     35.7936E-03     36.3993E-03
            1389            2004     35.7936E-03     36.3993E-03
            1391            2005     37.4488E-03     37.9345E-03
            1373            2005     37.4488E-03     37.9345E-03
            1372            2005     37.4488E-03     37.9345E-03
            1390            2005     37.4488E-03     37.9345E-03
            1391            2006     39.1777E-03     39.4822E-03
            1392            2006     39.1777E-03     39.4822E-03
            1373            2006     39.1777E-03     39.4822E-03
            1374            2006     39.1777E-03     39.4822E-03
            1392            2007     40.9510E-03     41.1173E-03
            1393            2007     40.9510E-03     41.1173E-03
            1374            2007     40.9510E-03     41.1173E-03
            1375            2007     40.9510E-03     41.1173E-03
            1375            2008     42.9702E-03     42.9724E-03
            1393            2008     42.9702E-03     42.9724E-03
            1376            2008     42.9702E-03     42.9724E-03
            1394            2008     42.9702E-03     42.9724E-03
            1376            2009     45.1782E-03     45.2266E-03
            1377            2009     45.1782E-03     45.2266E-03
            1395            2009     45.1782E-03     45.2266E-03
            1394            2009     45.1782E-03     45.2266E-03
            1395            2010     48.6805E-03     49.5439E-03
            1396            2010     48.6805E-03     49.5439E-03
            1377            2010     48.6805E-03     49.5439E-03
            1378            2010     48.6805E-03     49.5439E-03
            1398            2011     22.6597E-03     23.2480E-03
            1380            2011     22.6597E-03     23.2480E-03
            1379            2011     22.6597E-03     23.2480E-03
            1397            2011     22.6597E-03     23.2480E-03
            1380            2012     24.6947E-03     24.6615E-03
            1399            2012     24.6947E-03     24.6615E-03
            1398            2012     24.6947E-03     24.6615E-03
            1381            2012     24.6947E-03     24.6615E-03
            1382            2013     26.4127E-03     26.4402E-03
            1381            2013     26.4127E-03     26.4402E-03
            1399            2013     26.4127E-03     26.4402E-03
            1400            2013     26.4127E-03     26.4402E-03
            1400            2014     28.4066E-03     28.5447E-03
            1382            2014     28.4066E-03     28.5447E-03
            1401            2014     28.4066E-03     28.5447E-03
            1383            2014     28.4066E-03     28.5447E-03
            1384            2015     30.4083E-03     30.6269E-03
            1383            2015     30.4083E-03     30.6269E-03
            1401            2015     30.4083E-03     30.6269E-03
            1402            2015     30.4083E-03     30.6269E-03
            1402            2016     32.4525E-03     32.7075E-03
            1385            2016     32.4525E-03     32.7075E-03
            1403            2016     32.4525E-03     32.7075E-03
            1384            2016     32.4525E-03     32.7075E-03
            1403            2017     34.4726E-03     34.7338E-03
            1385            2017     34.4726E-03     34.7338E-03
            1386            2017     34.4726E-03     34.7338E-03
            1404            2017     34.4726E-03     34.7338E-03
            1386            2018     36.4792E-03     36.7146E-03
            1404            2018     36.4792E-03     36.7146E-03
            1387            2018     36.4792E-03     36.7146E-03
            1405            2018     36.4792E-03     36.7146E-03
            1405            2019     38.4473E-03     38.6365E-03
            1406            2019     38.4473E-03     38.6365E-03
            1387            2019     38.4473E-03     38.6365E-03
            1388            2019     38.4473E-03     38.6365E-03
            1406            2020     40.3837E-03     40.5002E-03
            1407            2020     40.3837E-03     40.5002E-03
            1389            2020     40.3837E-03     40.5002E-03
            1388            2020     40.3837E-03     40.5002E-03
            1407            2021     42.2666E-03     42.2905E-03
            1389            2021     42.2666E-03     42.2905E-03
            1390            2021     42.2666E-03     42.2905E-03
            1408            2021     42.2666E-03     42.2905E-03
            1390            2022     44.0940E-03     44.0036E-03
            1408            2022     44.0940E-03     44.0036E-03
            1391            2022     44.0940E-03     44.0036E-03
            1409            2022     44.0940E-03     44.0036E-03
            1392            2023     45.8344E-03     45.6111E-03
            1409            2023     45.8344E-03     45.6111E-03
            1410            2023     45.8344E-03     45.6111E-03
            1391            2023     45.8344E-03     45.6111E-03
            1411            2024     47.4788E-03     47.1233E-03
            1410            2024     47.4788E-03     47.1233E-03
            1393            2024     47.4788E-03     47.1233E-03
            1392            2024     47.4788E-03     47.1233E-03
            1394            2025     48.9564E-03     48.4845E-03
            1412            2025     48.9564E-03     48.4845E-03
            1393            2025     48.9564E-03     48.4845E-03
            1411            2025     48.9564E-03     48.4845E-03
            1394            2026     50.2831E-03     49.7566E-03
            1395            2026     50.2831E-03     49.7566E-03
            1412            2026     50.2831E-03     49.7566E-03
            1413            2026     50.2831E-03     49.7566E-03
            1395            2027     51.3788E-03     50.6054E-03
            1413            2027     51.3788E-03     50.6054E-03
            1396            2027     51.3788E-03     50.6054E-03
            1414            2027     51.3788E-03     50.6054E-03
            1397            2028     21.2893E-03     23.0773E-03
            1416            2028     21.2893E-03     23.0773E-03
            1398            2028     21.2893E-03     23.0773E-03
            1415            2028     21.2893E-03     23.0773E-03
            1417            2029     24.4544E-03     25.4563E-03
            1416            2029     24.4544E-03     25.4563E-03
            1398            2029     24.4544E-03     25.4563E-03
            1399            2029     24.4544E-03     25.4563E-03
            1400            2030     26.8266E-03     27.3376E-03
            1417            2030     26.8266E-03     27.3376E-03
            1399            2030     26.8266E-03     27.3376E-03
            1418            2030     26.8266E-03     27.3376E-03
            1418            2031     29.0503E-03     29.4668E-03
            1419            2031     29.0503E-03     29.4668E-03
            1400            2031     29.0503E-03     29.4668E-03
            1401            2031     29.0503E-03     29.4668E-03
            1419            2032     31.2115E-03     31.6087E-03
            1401            2032     31.2115E-03     31.6087E-03
            1402            2032     31.2115E-03     31.6087E-03
            1420            2032     31.2115E-03     31.6087E-03
            1420            2033     33.3307E-03     33.7321E-03
            1402            2033     33.3307E-03     33.7321E-03
            1421            2033     33.3307E-03     33.7321E-03
            1403            2033     33.3307E-03     33.7321E-03
            1404            2034     35.4273E-03     35.8288E-03
            1422            2034     35.4273E-03     35.8288E-03
            1403            2034     35.4273E-03     35.8288E-03
            1421            2034     35.4273E-03     35.8288E-03
            1404            2035     37.4970E-03     37.8956E-03
            1422            2035     37.4970E-03     37.8956E-03
            1405            2035     37.4970E-03     37.8956E-03
            1423            2035     37.4970E-03     37.8956E-03
            1423            2036     39.5551E-03     39.9386E-03
            1406            2036     39.5551E-03     39.9386E-03
            1424            2036     39.5551E-03     39.9386E-03
            1405            2036     39.5551E-03     39.9386E-03
            1425            2037     41.5844E-03     41.9551E-03
            1424            2037     41.5844E-03     41.9551E-03
            1406            2037     41.5844E-03     41.9551E-03
            1407            2037     41.5844E-03     41.9551E-03
            1426            2038     43.5914E-03     43.9407E-03
            1425            2038     43.5914E-03     43.9407E-03
            1407            2038     43.5914E-03     43.9407E-03
            1408            2038     43.5914E-03     43.9407E-03
            1408            2039     45.5411E-03     45.8848E-03
            1409            2039     45.5411E-03     45.8848E-03
            1427            2039     45.5411E-03     45.8848E-03
            1426            2039     45.5411E-03     45.8848E-03
            1409            2040     47.4206E-03     47.7652E-03
            1428            2040     47.4206E-03     47.7652E-03
            1410            2040     47.4206E-03     47.7652E-03
            1427            2040     47.4206E-03     47.7652E-03
            1428            2041     49.1729E-03     49.5596E-03
            1429            2041     49.1729E-03     49.5596E-03
            1410            2041     49.1729E-03     49.5596E-03
            1411            2041     49.1729E-03     49.5596E-03
            1429            2042     50.7571E-03     51.2159E-03
            1411            2042     50.7571E-03     51.2159E-03
            1412            2042     50.7571E-03     51.2159E-03
            1430            2042     50.7571E-03     51.2159E-03
            1412            2043     52.1785E-03     52.6570E-03
            1430            2043     52.1785E-03     52.6570E-03
            1413            2043     52.1785E-03     52.6570E-03
            1431            2043     52.1785E-03     52.6570E-03
            1413            2044     53.4962E-03     53.7573E-03
            1414            2044     53.4962E-03     53.7573E-03
            1431            2044     53.4962E-03     53.7573E-03
            1432            2044     53.4962E-03     53.7573E-03
            1416            2045     21.2837E-03     22.6840E-03
            1415            2045     21.2837E-03     22.6840E-03
            1433            2045     21.2837E-03     22.6840E-03
            1434            2045     21.2837E-03     22.6840E-03
            1416            2046     24.3561E-03     25.7505E-03
            1434            2046     24.3561E-03     25.7505E-03
            1417            2046     24.3561E-03     25.7505E-03
            1435            2046     24.3561E-03     25.7505E-03
            1435            2047     27.1670E-03     28.1607E-03
            1417            2047     27.1670E-03     28.1607E-03
            1418            2047     27.1670E-03     28.1607E-03
            1436            2047     27.1670E-03     28.1607E-03
            1419            2048     29.5917E-03     30.3212E-03
            1436            2048     29.5917E-03     30.3212E-03
            1437            2048     29.5917E-03     30.3212E-03
            1418            2048     29.5917E-03     30.3212E-03
            1438            2049     31.8753E-03     32.5147E-03
            1437            2049     31.8753E-03     32.5147E-03
            1420            2049     31.8753E-03     32.5147E-03
            1419            2049     31.8753E-03     32.5147E-03
            1420            2050     34.0593E-03     34.6542E-03
            1439            2050     34.0593E-03     34.6542E-03
            1421            2050     34.0593E-03     34.6542E-03
            1438            2050     34.0593E-03     34.6542E-03
            1421            2051     36.1980E-03     36.7854E-03
            1439            2051     36.1980E-03     36.7854E-03
            1422            2051     36.1980E-03     36.7854E-03
            1440            2051     36.1980E-03     36.7854E-03
            1422            2052     38.3184E-03     38.9068E-03
            1440            2052     38.3184E-03     38.9068E-03
            1441            2052     38.3184E-03     38.9068E-03
            1423            2052     38.3184E-03     38.9068E-03
            1423            2053     40.4235E-03     41.0300E-03
            1424            2053     40.4235E-03     41.0300E-03
            1441            2053     40.4235E-03     41.0300E-03
            1442            2053     40.4235E-03     41.0300E-03
            1424            2054     42.5308E-03     43.1577E-03
            1443            2054     42.5308E-03     43.1577E-03
            1425            2054     42.5308E-03     43.1577E-03
            1442            2054     42.5308E-03     43.1577E-03
            1426            2055     44.6166E-03     45.2881E-03
            1443            2055     44.6166E-03     45.2881E-03
            1425            2055     44.6166E-03     45.2881E-03
            1444            2055     44.6166E-03     45.2881E-03
            1445            2056     46.6774E-03     47.4015E-03
            1444            2056     46.6774E-03     47.4015E-03
            1426            2056     46.6774E-03     47.4015E-03
            1427            2056     46.6774E-03     47.4015E-03
            1446            2057     48.6714E-03     49.4774E-03
            1427            2057     48.6714E-03     49.4774E-03
            1428            2057     48.6714E-03     49.4774E-03
            1445            2057     48.6714E-03     49.4774E-03
            1447            2058     50.5432E-03     51.4553E-03
            1428            2058     50.5432E-03     51.4553E-03
            1429            2058     50.5432E-03     51.4553E-03
            1446            2058     50.5432E-03     51.4553E-03
            1429            2059     52.2913E-03     53.2553E-03
            1447            2059     52.2913E-03     53.2553E-03
            1448            2059     52.2913E-03     53.2553E-03
            1430            2059     52.2913E-03     53.2553E-03
            1430            2060     53.8020E-03     54.7766E-03
            1449            2060     53.8020E-03     54.7766E-03
            1448            2060     53.8020E-03     54.7766E-03
            1431            2060     53.8020E-03     54.7766E-03
            1432            2061     55.2784E-03     55.9988E-03
            1449            2061     55.2784E-03     55.9988E-03
            1450            2061     55.2784E-03     55.9988E-03
            1431            2061     55.2784E-03     55.9988E-03
            1451            2062     21.6522E-03     23.2092E-03
            1434            2062     21.6522E-03     23.2092E-03
            1452            2062     21.6522E-03     23.2092E-03
            1433            2062     21.6522E-03     23.2092E-03
            1452            2063     24.6955E-03     26.0564E-03
            1434            2063     24.6955E-03     26.0564E-03
            1435            2063     24.6955E-03     26.0564E-03
            1453            2063     24.6955E-03     26.0564E-03
            1453            2064     27.5035E-03     28.7346E-03
            1454            2064     27.5035E-03     28.7346E-03
            1435            2064     27.5035E-03     28.7346E-03
            1436            2064     27.5035E-03     28.7346E-03
            1437            2065     30.0532E-03     31.0646E-03
            1454            2065     30.0532E-03     31.0646E-03
            1436            2065     30.0532E-03     31.0646E-03
            1455            2065     30.0532E-03     31.0646E-03
            1437            2066     32.3684E-03     33.2321E-03
            1455            2066     32.3684E-03     33.2321E-03
            1456            2066     32.3684E-03     33.2321E-03
            1438            2066     32.3684E-03     33.2321E-03
            1438            2067     34.5739E-03     35.3776E-03
            1439            2067     34.5739E-03     35.3776E-03
            1456            2067     34.5739E-03     35.3776E-03
            1457            2067     34.5739E-03     35.3776E-03
            1439            2068     36.7228E-03     37.4995E-03
            1440            2068     36.7228E-03     37.4995E-03
            1458            2068     36.7228E-03     37.4995E-03
            1457            2068     36.7228E-03     37.4995E-03
            1459            2069     38.8499E-03     39.6372E-03
            1441            2069     38.8499E-03     39.6372E-03
            1458            2069     38.8499E-03     39.6372E-03
            1440            2069     38.8499E-03     39.6372E-03
            1460            2070     40.9864E-03     41.8004E-03
            1441            2070     40.9864E-03     41.8004E-03
            1459            2070     40.9864E-03     41.8004E-03
            1442            2070     40.9864E-03     41.8004E-03
            1442            2071     43.1253E-03     43.9942E-03
            1443            2071     43.1253E-03     43.9942E-03
            1461            2071     43.1253E-03     43.9942E-03
            1460            2071     43.1253E-03     43.9942E-03
            1461            2072     45.2814E-03     46.2156E-03
            1444            2072     45.2814E-03     46.2156E-03
            1462            2072     45.2814E-03     46.2156E-03
            1443            2072     45.2814E-03     46.2156E-03
            1444            2073     47.4263E-03     48.4542E-03
            1445            2073     47.4263E-03     48.4542E-03
            1463            2073     47.4263E-03     48.4542E-03
            1462            2073     47.4263E-03     48.4542E-03
            1464            2074     49.5362E-03     50.6663E-03
            1445            2074     49.5362E-03     50.6663E-03
            1446            2074     49.5362E-03     50.6663E-03
            1463            2074     49.5362E-03     50.6663E-03
            1447            2075     51.5845E-03     52.7869E-03
            1446            2075     51.5845E-03     52.7869E-03
            1464            2075     51.5845E-03     52.7869E-03
            1465            2075     51.5845E-03     52.7869E-03
            1448            2076     53.4667E-03     54.7213E-03
            1465            2076     53.4667E-03     54.7213E-03
            1447            2076     53.4667E-03     54.7213E-03
            1466            2076     53.4667E-03     54.7213E-03
            1467            2077     55.2344E-03     56.3376E-03
            1448            2077     55.2344E-03     56.3376E-03
            1449            2077     55.2344E-03     56.3376E-03
            1466            2077     55.2344E-03     56.3376E-03
            1468            2078     56.9080E-03     57.6151E-03
            1450            2078     56.9080E-03     57.6151E-03
            1449            2078     56.9080E-03     57.6151E-03
            1467            2078     56.9080E-03     57.6151E-03
            1451            2079     22.3499E-03     23.8786E-03
            1470            2079     22.3499E-03     23.8786E-03
            1452            2079     22.3499E-03     23.8786E-03
            1469            2079     22.3499E-03     23.8786E-03
            1470            2080     25.2266E-03     26.7040E-03
            1471            2080     25.2266E-03     26.7040E-03
            1452            2080     25.2266E-03     26.7040E-03
            1453            2080     25.2266E-03     26.7040E-03
            1454            2081     27.9660E-03     29.2804E-03
            1453            2081     27.9660E-03     29.2804E-03
            1472            2081     27.9660E-03     29.2804E-03
            1471            2081     27.9660E-03     29.2804E-03
            1472            2082     30.4298E-03     31.6109E-03
            1455            2082     30.4298E-03     31.6109E-03
            1454            2082     30.4298E-03     31.6109E-03
            1473            2082     30.4298E-03     31.6109E-03
            1455            2083     32.7000E-03     33.7562E-03
            1456            2083     32.7000E-03     33.7562E-03
            1474            2083     32.7000E-03     33.7562E-03
            1473            2083     32.7000E-03     33.7562E-03
            1474            2084     34.8550E-03     35.8329E-03
            1456            2084     34.8550E-03     35.8329E-03
            1457            2084     34.8550E-03     35.8329E-03
            1475            2084     34.8550E-03     35.8329E-03
            1458            2085     36.9608E-03     37.9145E-03
            1457            2085     36.9608E-03     37.9145E-03
            1476            2085     36.9608E-03     37.9145E-03
            1475            2085     36.9608E-03     37.9145E-03
            1459            2086     39.0717E-03     40.0317E-03
            1477            2086     39.0717E-03     40.0317E-03
            1476            2086     39.0717E-03     40.0317E-03
            1458            2086     39.0717E-03     40.0317E-03
            1460            2087     41.1936E-03     42.1931E-03
            1477            2087     41.1936E-03     42.1931E-03
            1459            2087     41.1936E-03     42.1931E-03
            1478            2087     41.1936E-03     42.1931E-03
            1479            2088     43.3518E-03     44.4093E-03
            1478            2088     43.3518E-03     44.4093E-03
            1460            2088     43.3518E-03     44.4093E-03
            1461            2088     43.3518E-03     44.4093E-03
            1479            2089     45.5354E-03     46.6786E-03
            1480            2089     45.5354E-03     46.6786E-03
            1461            2089     45.5354E-03     46.6786E-03
            1462            2089     45.5354E-03     46.6786E-03
            1481            2090     47.7616E-03     48.9940E-03
            1462            2090     47.7616E-03     48.9940E-03
            1480            2090     47.7616E-03     48.9940E-03
            1463            2090     47.7616E-03     48.9940E-03
            1481            2091     50.0034E-03     51.3284E-03
            1463            2091     50.0034E-03     51.3284E-03
            1482            2091     50.0034E-03     51.3284E-03
            1464            2091     50.0034E-03     51.3284E-03
            1482            2092     52.2214E-03     53.6103E-03
            1464            2092     52.2214E-03     53.6103E-03
            1483            2092     52.2214E-03     53.6103E-03
            1465            2092     52.2214E-03     53.6103E-03
            1465            2093     54.3890E-03     55.7212E-03
            1483            2093     54.3890E-03     55.7212E-03
            1466            2093     54.3890E-03     55.7212E-03
            1484            2093     54.3890E-03     55.7212E-03
            1467            2094     56.4109E-03     57.5739E-03
            1484            2094     56.4109E-03     57.5739E-03
            1485            2094     56.4109E-03     57.5739E-03
            1466            2094     56.4109E-03     57.5739E-03
            1485            2095     58.3337E-03     59.1541E-03
            1467            2095     58.3337E-03     59.1541E-03
            1468            2095     58.3337E-03     59.1541E-03
            1486            2095     58.3337E-03     59.1541E-03
            1487            2096     23.1928E-03     24.7790E-03
            1488            2096     23.1928E-03     24.7790E-03
            1469            2096     23.1928E-03     24.7790E-03
            1470            2096     23.1928E-03     24.7790E-03
            1488            2097     25.9772E-03     27.4905E-03
            1470            2097     25.9772E-03     27.4905E-03
            1489            2097     25.9772E-03     27.4905E-03
            1471            2097     25.9772E-03     27.4905E-03
            1489            2098     28.4888E-03     29.8912E-03
            1471            2098     28.4888E-03     29.8912E-03
            1490            2098     28.4888E-03     29.8912E-03
            1472            2098     28.4888E-03     29.8912E-03
            1490            2099     30.7635E-03     32.0438E-03
            1473            2099     30.7635E-03     32.0438E-03
            1472            2099     30.7635E-03     32.0438E-03
            1491            2099     30.7635E-03     32.0438E-03
            1473            2100     32.8698E-03     34.0517E-03
            1474            2100     32.8698E-03     34.0517E-03
            1491            2100     32.8698E-03     34.0517E-03
            1492            2100     32.8698E-03     34.0517E-03
            1475            2101     34.8926E-03     36.0097E-03
            1492            2101     34.8926E-03     36.0097E-03
            1493            2101     34.8926E-03     36.0097E-03
            1474            2101     34.8926E-03     36.0097E-03
            1476            2102     36.9280E-03     38.0217E-03
            1494            2102     36.9280E-03     38.0217E-03
            1493            2102     36.9280E-03     38.0217E-03
            1475            2102     36.9280E-03     38.0217E-03
            1494            2103     38.9768E-03     40.0810E-03
            1476            2103     38.9768E-03     40.0810E-03
            1495            2103     38.9768E-03     40.0810E-03
            1477            2103     38.9768E-03     40.0810E-03
            1496            2104     41.0679E-03     42.2087E-03
            1478            2104     41.0679E-03     42.2087E-03
            1495            2104     41.0679E-03     42.2087E-03
            1477            2104     41.0679E-03     42.2087E-03
            1497            2105     43.2006E-03     44.4023E-03
            1496            2105     43.2006E-03     44.4023E-03
            1479            2105     43.2006E-03     44.4023E-03
            1478            2105     43.2006E-03     44.4023E-03
            1498            2106     45.3986E-03     46.6757E-03
            1479            2106     45.3986E-03     46.6757E-03
            1480            2106     45.3986E-03     46.6757E-03
            1497            2106     45.3986E-03     46.6757E-03
            1499            2107     47.6596E-03     49.0269E-03
            1480            2107     47.6596E-03     49.0269E-03
            1498            2107     47.6596E-03     49.0269E-03
            1481            2107     47.6596E-03     49.0269E-03
            1499            2108     50.0330E-03     51.4607E-03
            1481            2108     50.0330E-03     51.4607E-03
            1482            2108     50.0330E-03     51.4607E-03
            1500            2108     50.0330E-03     51.4607E-03
            1483            2109     52.4781E-03     53.9425E-03
            1482            2109     52.4781E-03     53.9425E-03
            1501            2109     52.4781E-03     53.9425E-03
            1500            2109     52.4781E-03     53.9425E-03
            1502            2110     54.9496E-03     56.3605E-03
            1501            2110     54.9496E-03     56.3605E-03
            1483            2110     54.9496E-03     56.3605E-03
            1484            2110     54.9496E-03     56.3605E-03
            1485            2111     57.3862E-03     58.5689E-03
            1503            2111     57.3862E-03     58.5689E-03
            1502            2111     57.3862E-03     58.5689E-03
            1484            2111     57.3862E-03     58.5689E-03
            1485            2112     59.6069E-03     60.5419E-03
            1503            2112     59.6069E-03     60.5419E-03
            1486            2112     59.6069E-03     60.5419E-03
            1504            2112     59.6069E-03     60.5419E-03
            1506            2113     24.2972E-03     25.9367E-03
            1487            2113     24.2972E-03     25.9367E-03
            1505            2113     24.2972E-03     25.9367E-03
            1488            2113     24.2972E-03     25.9367E-03
            1489            2114     26.8805E-03     28.4206E-03
            1506            2114     26.8805E-03     28.4206E-03
            1507            2114     26.8805E-03     28.4206E-03
            1488            2114     26.8805E-03     28.4206E-03
            1507            2115     29.0990E-03     30.5580E-03
            1490            2115     29.0990E-03     30.5580E-03
            1508            2115     29.0990E-03     30.5580E-03
            1489            2115     29.0990E-03     30.5580E-03
            1490            2116     31.0315E-03     32.3718E-03
            1508            2116     31.0315E-03     32.3718E-03
            1509            2116     31.0315E-03     32.3718E-03
            1491            2116     31.0315E-03     32.3718E-03
            1491            2117     32.8416E-03     34.0974E-03
            1509            2117     32.8416E-03     34.0974E-03
            1510            2117     32.8416E-03     34.0974E-03
            1492            2117     32.8416E-03     34.0974E-03
            1492            2118     34.7237E-03     35.9425E-03
            1493            2118     34.7237E-03     35.9425E-03
            1511            2118     34.7237E-03     35.9425E-03
            1510            2118     34.7237E-03     35.9425E-03
            1512            2119     36.6403E-03     37.8440E-03
            1494            2119     36.6403E-03     37.8440E-03
            1511            2119     36.6403E-03     37.8440E-03
            1493            2119     36.6403E-03     37.8440E-03
            1513            2120     38.6154E-03     39.8319E-03
            1495            2120     38.6154E-03     39.8319E-03
            1512            2120     38.6154E-03     39.8319E-03
            1494            2120     38.6154E-03     39.8319E-03
            1513            2121     40.6426E-03     41.8883E-03
            1514            2121     40.6426E-03     41.8883E-03
            1496            2121     40.6426E-03     41.8883E-03
            1495            2121     40.6426E-03     41.8883E-03
            1497            2122     42.7291E-03     44.0247E-03
            1514            2122     42.7291E-03     44.0247E-03
            1515            2122     42.7291E-03     44.0247E-03
            1496            2122     42.7291E-03     44.0247E-03
            1497            2123     44.8901E-03     46.2467E-03
            1516            2123     44.8901E-03     46.2467E-03
            1515            2123     44.8901E-03     46.2467E-03
            1498            2123     44.8901E-03     46.2467E-03
            1499            2124     47.1662E-03     48.5886E-03
            1517            2124     47.1662E-03     48.5886E-03
            1498            2124     47.1662E-03     48.5886E-03
            1516            2124     47.1662E-03     48.5886E-03
            1499            2125     49.5758E-03     51.0657E-03
            1500            2125     49.5758E-03     51.0657E-03
            1517            2125     49.5758E-03     51.0657E-03
            1518            2125     49.5758E-03     51.0657E-03
            1501            2126     52.2666E-03     53.7310E-03
            1500            2126     52.2666E-03     53.7310E-03
            1519            2126     52.2666E-03     53.7310E-03
            1518            2126     52.2666E-03     53.7310E-03
            1519            2127     55.1413E-03     56.5622E-03
            1501            2127     55.1413E-03     56.5622E-03
            1502            2127     55.1413E-03     56.5622E-03
            1520            2127     55.1413E-03     56.5622E-03
            1520            2128     58.0294E-03     59.3504E-03
            1502            2128     58.0294E-03     59.3504E-03
            1503            2128     58.0294E-03     59.3504E-03
            1521            2128     58.0294E-03     59.3504E-03
            1504            2129     60.8435E-03     61.7450E-03
            1521            2129     60.8435E-03     61.7450E-03
            1503            2129     60.8435E-03     61.7450E-03
            1522            2129     60.8435E-03     61.7450E-03
            1505            2130     25.7315E-03     27.3696E-03
            1524            2130     25.7315E-03     27.3696E-03
            1506            2130     25.7315E-03     27.3696E-03
            1523            2130     25.7315E-03     27.3696E-03
            1507            2131     28.0967E-03     29.7215E-03
            1524            2131     28.0967E-03     29.7215E-03
            1506            2131     28.0967E-03     29.7215E-03
            1525            2131     28.0967E-03     29.7215E-03
            1507            2132     29.7377E-03     31.1807E-03
            1508            2132     29.7377E-03     31.1807E-03
            1525            2132     29.7377E-03     31.1807E-03
            1526            2132     29.7377E-03     31.1807E-03
            1509            2133     31.0787E-03     32.4229E-03
            1508            2133     31.0787E-03     32.4229E-03
            1527            2133     31.0787E-03     32.4229E-03
            1526            2133     31.0787E-03     32.4229E-03
            1528            2134     32.6600E-03     33.9742E-03
            1527            2134     32.6600E-03     33.9742E-03
            1509            2134     32.6600E-03     33.9742E-03
            1510            2134     32.6600E-03     33.9742E-03
            1529            2135     34.3580E-03     35.6547E-03
            1528            2135     34.3580E-03     35.6547E-03
            1510            2135     34.3580E-03     35.6547E-03
            1511            2135     34.3580E-03     35.6547E-03
            1511            2136     36.1623E-03     37.4635E-03
            1530            2136     36.1623E-03     37.4635E-03
            1529            2136     36.1623E-03     37.4635E-03
            1512            2136     36.1623E-03     37.4635E-03
            1513            2137     38.0483E-03     39.3563E-03
            1531            2137     38.0483E-03     39.3563E-03
            1530            2137     38.0483E-03     39.3563E-03
            1512            2137     38.0483E-03     39.3563E-03
            1513            2138     39.9924E-03     41.3213E-03
            1532            2138     39.9924E-03     41.3213E-03
            1531            2138     39.9924E-03     41.3213E-03
            1514            2138     39.9924E-03     41.3213E-03
            1515            2139     42.0079E-03     43.3581E-03
            1533            2139     42.0079E-03     43.3581E-03
            1532            2139     42.0079E-03     43.3581E-03
            1514            2139     42.0079E-03     43.3581E-03
            1534            2140     44.0988E-03     45.4868E-03
            1515            2140     44.0988E-03     45.4868E-03
            1533            2140     44.0988E-03     45.4868E-03
            1516            2140     44.0988E-03     45.4868E-03
            1534            2141     46.3131E-03     47.7369E-03
            1535            2141     46.3131E-03     47.7369E-03
            1517            2141     46.3131E-03     47.7369E-03
            1516            2141     46.3131E-03     47.7369E-03
            1536            2142     48.7288E-03     50.1885E-03
            1518            2142     48.7288E-03     50.1885E-03
            1535            2142     48.7288E-03     50.1885E-03
            1517            2142     48.7288E-03     50.1885E-03
            1536            2143     51.4152E-03     52.9078E-03
            1518            2143     51.4152E-03     52.9078E-03
            1519            2143     51.4152E-03     52.9078E-03
            1537            2143     51.4152E-03     52.9078E-03
            1519            2144     54.7400E-03     56.0851E-03
            1520            2144     54.7400E-03     56.0851E-03
            1537            2144     54.7400E-03     56.0851E-03
            1538            2144     54.7400E-03     56.0851E-03
            1538            2145     58.4131E-03     59.6046E-03
            1520            2145     58.4131E-03     59.6046E-03
            1521            2145     58.4131E-03     59.6046E-03
            1539            2145     58.4131E-03     59.6046E-03
            1540            2146     61.7554E-03     62.9971E-03
            1521            2146     61.7554E-03     62.9971E-03
            1539            2146     61.7554E-03     62.9971E-03
            1522            2146     61.7554E-03     62.9971E-03
            1542            2147     28.0366E-03     29.8823E-03
            1523            2147     28.0366E-03     29.8823E-03
            1524            2147     28.0366E-03     29.8823E-03
            1541            2147     28.0366E-03     29.8823E-03
            1542            2148     29.5608E-03     31.0320E-03
            1543            2148     29.5608E-03     31.0320E-03
            1524            2148     29.5608E-03     31.0320E-03
            1525            2148     29.5608E-03     31.0320E-03
            1526            2149     29.9603E-03     31.2958E-03
            1544            2149     29.9603E-03     31.2958E-03
            1525            2149     29.9603E-03     31.2958E-03
            1543            2149     29.9603E-03     31.2958E-03
            1544            2150     30.9574E-03     32.3049E-03
            1527            2150     30.9574E-03     32.3049E-03
            1526            2150     30.9574E-03     32.3049E-03
            1545            2150     30.9574E-03     32.3049E-03
            1545            2151     32.3141E-03     33.6793E-03
            1546            2151     32.3141E-03     33.6793E-03
            1528            2151     32.3141E-03     33.6793E-03
            1527            2151     32.3141E-03     33.6793E-03
            1528            2152     33.8614E-03     35.2522E-03
            1546            2152     33.8614E-03     35.2522E-03
            1547            2152     33.8614E-03     35.2522E-03
            1529            2152     33.8614E-03     35.2522E-03
            1530            2153     35.5684E-03     36.9692E-03
            1547            2153     35.5684E-03     36.9692E-03
            1548            2153     35.5684E-03     36.9692E-03
            1529            2153     35.5684E-03     36.9692E-03
            1549            2154     37.3511E-03     38.7602E-03
            1530            2154     37.3511E-03     38.7602E-03
            1531            2154     37.3511E-03     38.7602E-03
            1548            2154     37.3511E-03     38.7602E-03
            1550            2155     39.2147E-03     40.6168E-03
            1531            2155     39.2147E-03     40.6168E-03
            1532            2155     39.2147E-03     40.6168E-03
            1549            2155     39.2147E-03     40.6168E-03
            1550            2156     41.1281E-03     42.5256E-03
            1533            2156     41.1281E-03     42.5256E-03
            1532            2156     41.1281E-03     42.5256E-03
            1551            2156     41.1281E-03     42.5256E-03
            1533            2157     43.1317E-03     44.5106E-03
            1551            2157     43.1317E-03     44.5106E-03
            1534            2157     43.1317E-03     44.5106E-03
            1552            2157     43.1317E-03     44.5106E-03
            1534            2158     45.2351E-03     46.6102E-03
            1552            2158     45.2351E-03     46.6102E-03
            1535            2158     45.2351E-03     46.6102E-03
            1553            2158     45.2351E-03     46.6102E-03
            1553            2159     47.5437E-03     48.9053E-03
            1536            2159     47.5437E-03     48.9053E-03
            1535            2159     47.5437E-03     48.9053E-03
            1554            2159     47.5437E-03     48.9053E-03
            1537            2160     50.1660E-03     51.5385E-03
            1555            2160     50.1660E-03     51.5385E-03
            1536            2160     50.1660E-03     51.5385E-03
            1554            2160     50.1660E-03     51.5385E-03
            1538            2161     53.3302E-03     54.7114E-03
            1537            2161     53.3302E-03     54.7114E-03
            1555            2161     53.3302E-03     54.7114E-03
            1556            2161     53.3302E-03     54.7114E-03
            1538            2162     57.8618E-03     58.9261E-03
            1557            2162     57.8618E-03     58.9261E-03
            1556            2162     57.8618E-03     58.9261E-03
            1539            2162     57.8618E-03     58.9261E-03
            1540            2163     62.7435E-03     63.2441E-03
            1539            2163     62.7435E-03     63.2441E-03
            1558            2163     62.7435E-03     63.2441E-03
            1557            2163     62.7435E-03     63.2441E-03
            1542            2164     31.2712E-03     32.4183E-03
            1541            2164     31.2712E-03     32.4183E-03
            1559            2164     31.2712E-03     32.4183E-03
            1560            2164     31.2712E-03     32.4183E-03
            1560            2165     30.0671E-03     31.1552E-03
            1542            2165     30.0671E-03     31.1552E-03
            1561            2165     30.0671E-03     31.1552E-03
            1543            2165     30.0671E-03     31.1552E-03
            1562            2166     29.8073E-03     31.0658E-03
            1561            2166     29.8073E-03     31.0658E-03
            1543            2166     29.8073E-03     31.0658E-03
            1544            2166     29.8073E-03     31.0658E-03
            1545            2167     30.6850E-03     32.0592E-03
            1563            2167     30.6850E-03     32.0592E-03
            1544            2167     30.6850E-03     32.0592E-03
            1562            2167     30.6850E-03     32.0592E-03
            1564            2168     31.8525E-03     33.3178E-03
            1546            2168     31.8525E-03     33.3178E-03
            1545            2168     31.8525E-03     33.3178E-03
            1563            2168     31.8525E-03     33.3178E-03
            1565            2169     33.3314E-03     34.8454E-03
            1546            2169     33.3314E-03     34.8454E-03
            1547            2169     33.3314E-03     34.8454E-03
            1564            2169     33.3314E-03     34.8454E-03
            1547            2170     34.9221E-03     36.4614E-03
            1566            2170     34.9221E-03     36.4614E-03
            1548            2170     34.9221E-03     36.4614E-03
            1565            2170     34.9221E-03     36.4614E-03
            1567            2171     36.6284E-03     38.1611E-03
            1566            2171     36.6284E-03     38.1611E-03
            1549            2171     36.6284E-03     38.1611E-03
            1548            2171     36.6284E-03     38.1611E-03
            1550            2172     38.3833E-03     39.8900E-03
            1568            2172     38.3833E-03     39.8900E-03
            1567            2172     38.3833E-03     39.8900E-03
            1549            2172     38.3833E-03     39.8900E-03
            1569            2173     40.2107E-03     41.6618E-03
            1550            2173     40.2107E-03     41.6618E-03
            1568            2173     40.2107E-03     41.6618E-03
            1551            2173     40.2107E-03     41.6618E-03
            1552            2174     42.0906E-03     43.4708E-03
            1569            2174     42.0906E-03     43.4708E-03
            1551            2174     42.0906E-03     43.4708E-03
            1570            2174     42.0906E-03     43.4708E-03
            1570            2175     44.0921E-03     45.3756E-03
            1552            2175     44.0921E-03     45.3756E-03
            1571            2175     44.0921E-03     45.3756E-03
            1553            2175     44.0921E-03     45.3756E-03
            1553            2176     46.2281E-03     47.4190E-03
            1572            2176     46.2281E-03     47.4190E-03
            1571            2176     46.2281E-03     47.4190E-03
            1554            2176     46.2281E-03     47.4190E-03
            1573            2177     48.6917E-03     49.7958E-03
            1555            2177     48.6917E-03     49.7958E-03
            1554            2177     48.6917E-03     49.7958E-03
            1572            2177     48.6917E-03     49.7958E-03
            1555            2178     51.5609E-03     52.6539E-03
            1573            2178     51.5609E-03     52.6539E-03
            1574            2178     51.5609E-03     52.6539E-03
            1556            2178     51.5609E-03     52.6539E-03
            1556            2179     55.5758E-03     56.8004E-03
            1575            2179     55.5758E-03     56.8004E-03
            1557            2179     55.5758E-03     56.8004E-03
            1574            2179     55.5758E-03     56.8004E-03
            1575            2180     61.9818E-03     62.9092E-03
            1558            2180     61.9818E-03     62.9092E-03
            1576            2180     61.9818E-03     62.9092E-03
            1557            2180     61.9818E-03     62.9092E-03
            1560            2181     32.0616E-03     31.6235E-03
            1577            2181     32.0616E-03     31.6235E-03
            1559            2181     32.0616E-03     31.6235E-03
            1578            2181     32.0616E-03     31.6235E-03
            1579            2182     30.6877E-03     31.0121E-03
            1560            2182     30.6877E-03     31.0121E-03
            1561            2182     30.6877E-03     31.0121E-03
            1578            2182     30.6877E-03     31.0121E-03
            1561            2183     31.4934E-03     32.1830E-03
            1562            2183     31.4934E-03     32.1830E-03
            1579            2183     31.4934E-03     32.1830E-03
            1580            2183     31.4934E-03     32.1830E-03
            1562            2184     32.9356E-03     33.8471E-03
            1563            2184     32.9356E-03     33.8471E-03
            1580            2184     32.9356E-03     33.8471E-03
            1581            2184     32.9356E-03     33.8471E-03
            1581            2185     34.6746E-03     35.7078E-03
            1563            2185     34.6746E-03     35.7078E-03
            1582            2185     34.6746E-03     35.7078E-03
            1564            2185     34.6746E-03     35.7078E-03
            1582            2186     36.5583E-03     37.6500E-03
            1564            2186     36.5583E-03     37.6500E-03
            1583            2186     36.5583E-03     37.6500E-03
            1565            2186     36.5583E-03     37.6500E-03
            1583            2187     38.5174E-03     39.6175E-03
            1565            2187     38.5174E-03     39.6175E-03
            1584            2187     38.5174E-03     39.6175E-03
            1566            2187     38.5174E-03     39.6175E-03
            1584            2188     40.4979E-03     41.5772E-03
            1585            2188     40.4979E-03     41.5772E-03
            1567            2188     40.4979E-03     41.5772E-03
            1566            2188     40.4979E-03     41.5772E-03
            1586            2189     42.4999E-03     43.5140E-03
            1585            2189     42.4999E-03     43.5140E-03
            1567            2189     42.4999E-03     43.5140E-03
            1568            2189     42.4999E-03     43.5140E-03
            1587            2190     44.4908E-03     45.4217E-03
            1586            2190     44.4908E-03     45.4217E-03
            1568            2190     44.4908E-03     45.4217E-03
            1569            2190     44.4908E-03     45.4217E-03
            1587            2191     46.5087E-03     47.2949E-03
            1570            2191     46.5087E-03     47.2949E-03
            1588            2191     46.5087E-03     47.2949E-03
            1569            2191     46.5087E-03     47.2949E-03
            1588            2192     48.5171E-03     49.1520E-03
            1570            2192     48.5171E-03     49.1520E-03
            1589            2192     48.5171E-03     49.1520E-03
            1571            2192     48.5171E-03     49.1520E-03
            1571            2193     50.6127E-03     51.0122E-03
            1572            2193     50.6127E-03     51.0122E-03
            1590            2193     50.6127E-03     51.0122E-03
            1589            2193     50.6127E-03     51.0122E-03
            1590            2194     52.7413E-03     52.9508E-03
            1573            2194     52.7413E-03     52.9508E-03
            1591            2194     52.7413E-03     52.9508E-03
            1572            2194     52.7413E-03     52.9508E-03
            1573            2195     55.1479E-03     55.1255E-03
            1574            2195     55.1479E-03     55.1255E-03
            1591            2195     55.1479E-03     55.1255E-03
            1592            2195     55.1479E-03     55.1255E-03
            1592            2196     57.7679E-03     57.7568E-03
            1574            2196     57.7679E-03     57.7568E-03
            1593            2196     57.7679E-03     57.7568E-03
            1575            2196     57.7679E-03     57.7568E-03
            1593            2197     61.8252E-03     62.7924E-03
            1576            2197     61.8252E-03     62.7924E-03
            1594            2197     61.8252E-03     62.7924E-03
            1575            2197     61.8252E-03     62.7924E-03
            1595            2198     29.6559E-03     30.4273E-03
            1596            2198     29.6559E-03     30.4273E-03
            1577            2198     29.6559E-03     30.4273E-03
            1578            2198     29.6559E-03     30.4273E-03
            1596            2199     31.7489E-03     31.9717E-03
            1578            2199     31.7489E-03     31.9717E-03
            1597            2199     31.7489E-03     31.9717E-03
            1579            2199     31.7489E-03     31.9717E-03
            1580            2200     33.6050E-03     33.9722E-03
            1579            2200     33.6050E-03     33.9722E-03
            1598            2200     33.6050E-03     33.9722E-03
            1597            2200     33.6050E-03     33.9722E-03
            1599            2201     35.9215E-03     36.4201E-03
            1598            2201     35.9215E-03     36.4201E-03
            1580            2201     35.9215E-03     36.4201E-03
            1581            2201     35.9215E-03     36.4201E-03
            1599            2202     38.2441E-03     38.8323E-03
            1581            2202     38.2441E-03     38.8323E-03
            1600            2202     38.2441E-03     38.8323E-03
            1582            2202     38.2441E-03     38.8323E-03
            1582            2203     40.6394E-03     41.2669E-03
            1583            2203     40.6394E-03     41.2669E-03
            1600            2203     40.6394E-03     41.2669E-03
            1601            2203     40.6394E-03     41.2669E-03
            1602            2204     43.0015E-03     43.6290E-03
            1601            2204     43.0015E-03     43.6290E-03
            1583            2204     43.0015E-03     43.6290E-03
            1584            2204     43.0015E-03     43.6290E-03
            1584            2205     45.3543E-03     45.9564E-03
            1585            2205     45.3543E-03     45.9564E-03
            1602            2205     45.3543E-03     45.9564E-03
            1603            2205     45.3543E-03     45.9564E-03
            1585            2206     47.6707E-03     48.2176E-03
            1586            2206     47.6707E-03     48.2176E-03
            1603            2206     47.6707E-03     48.2176E-03
            1604            2206     47.6707E-03     48.2176E-03
            1586            2207     49.9602E-03     50.4315E-03
            1605            2207     49.9602E-03     50.4315E-03
            1604            2207     49.9602E-03     50.4315E-03
            1587            2207     49.9602E-03     50.4315E-03
            1588            2208     52.2063E-03     52.5722E-03
            1587            2208     52.2063E-03     52.5722E-03
            1606            2208     52.2063E-03     52.5722E-03
            1605            2208     52.2063E-03     52.5722E-03
            1588            2209     54.4203E-03     54.6537E-03
            1589            2209     54.4203E-03     54.6537E-03
            1607            2209     54.4203E-03     54.6537E-03
            1606            2209     54.4203E-03     54.6537E-03
            1608            2210     56.5599E-03     56.6436E-03
            1589            2210     56.5599E-03     56.6436E-03
            1607            2210     56.5599E-03     56.6436E-03
            1590            2210     56.5599E-03     56.6436E-03
            1590            2211     58.6730E-03     58.5807E-03
            1591            2211     58.6730E-03     58.5807E-03
            1609            2211     58.6730E-03     58.5807E-03
            1608            2211     58.6730E-03     58.5807E-03
            1609            2212     60.6532E-03     60.4342E-03
            1610            2212     60.6532E-03     60.4342E-03
            1592            2212     60.6532E-03     60.4342E-03
            1591            2212     60.6532E-03     60.4342E-03
            1592            2213     62.6907E-03     62.3793E-03
            1593            2213     62.6907E-03     62.3793E-03
            1610            2213     62.6907E-03     62.3793E-03
            1611            2213     62.6907E-03     62.3793E-03
            1611            2214     64.7566E-03     64.1032E-03
            1594            2214     64.7566E-03     64.1032E-03
            1612            2214     64.7566E-03     64.1032E-03
            1593            2214     64.7566E-03     64.1032E-03
            1613            2215     27.9794E-03     30.1637E-03
            1595            2215     27.9794E-03     30.1637E-03
            1596            2215     27.9794E-03     30.1637E-03
            1614            2215     27.9794E-03     30.1637E-03
            1614            2216     31.7523E-03     33.0583E-03
            1596            2216     31.7523E-03     33.0583E-03
            1597            2216     31.7523E-03     33.0583E-03
            1615            2216     31.7523E-03     33.0583E-03
            1615            2217     34.3259E-03     35.1446E-03
            1616            2217     34.3259E-03     35.1446E-03
            1598            2217     34.3259E-03     35.1446E-03
            1597            2217     34.3259E-03     35.1446E-03
            1598            2218     36.8110E-03     37.5544E-03
            1617            2218     36.8110E-03     37.5544E-03
            1599            2218     36.8110E-03     37.5544E-03
            1616            2218     36.8110E-03     37.5544E-03
            1600            2219     39.2642E-03     39.9974E-03
            1599            2219     39.2642E-03     39.9974E-03
            1617            2219     39.2642E-03     39.9974E-03
            1618            2219     39.2642E-03     39.9974E-03
            1600            2220     41.6822E-03     42.4186E-03
            1619            2220     41.6822E-03     42.4186E-03
            1601            2220     41.6822E-03     42.4186E-03
            1618            2220     41.6822E-03     42.4186E-03
            1619            2221     44.0889E-03     44.8301E-03
            1601            2221     44.0889E-03     44.8301E-03
            1620            2221     44.0889E-03     44.8301E-03
            1602            2221     44.0889E-03     44.8301E-03
            1603            2222     46.4825E-03     47.2161E-03
            1602            2222     46.4825E-03     47.2161E-03
            1620            2222     46.4825E-03     47.2161E-03
            1621            2222     46.4825E-03     47.2161E-03
            1604            2223     48.8705E-03     49.5944E-03
            1622            2223     48.8705E-03     49.5944E-03
            1603            2223     48.8705E-03     49.5944E-03
            1621            2223     48.8705E-03     49.5944E-03
            1622            2224     51.2538E-03     51.9606E-03
            1604            2224     51.2538E-03     51.9606E-03
            1605            2224     51.2538E-03     51.9606E-03
            1623            2224     51.2538E-03     51.9606E-03
            1624            2225     53.6300E-03     54.3212E-03
            1606            2225     53.6300E-03     54.3212E-03
            1605            2225     53.6300E-03     54.3212E-03
            1623            2225     53.6300E-03     54.3212E-03
            1607            2226     55.9803E-03     56.6680E-03
            1606            2226     55.9803E-03     56.6680E-03
            1625            2226     55.9803E-03     56.6680E-03
            1624            2226     55.9803E-03     56.6680E-03
            1607            2227     58.3074E-03     58.9926E-03
            1608            2227     58.3074E-03     58.9926E-03
            1626            2227     58.3074E-03     58.9926E-03
            1625            2227     58.3074E-03     58.9926E-03
            1626            2228     60.5487E-03     61.2942E-03
            1608            2228     60.5487E-03     61.2942E-03
            1609            2228     60.5487E-03     61.2942E-03
            1627            2228     60.5487E-03     61.2942E-03
            1627            2229     62.7349E-03     63.5209E-03
            1610            2229     62.7349E-03     63.5209E-03
            1628            2229     62.7349E-03     63.5209E-03
            1609            2229     62.7349E-03     63.5209E-03
            1628            2230     64.9208E-03     65.6851E-03
            1610            2230     64.9208E-03     65.6851E-03
            1629            2230     64.9208E-03     65.6851E-03
            1611            2230     64.9208E-03     65.6851E-03
            1611            2231     66.8811E-03     67.3023E-03
            1630            2231     66.8811E-03     67.3023E-03
            1629            2231     66.8811E-03     67.3023E-03
            1612            2231     66.8811E-03     67.3023E-03
            1613            2232     27.8587E-03     29.6875E-03
            1632            2232     27.8587E-03     29.6875E-03
            1614            2232     27.8587E-03     29.6875E-03
            1631            2232     27.8587E-03     29.6875E-03
            1614            2233     31.6660E-03     33.4141E-03
            1633            2233     31.6660E-03     33.4141E-03
            1632            2233     31.6660E-03     33.4141E-03
            1615            2233     31.6660E-03     33.4141E-03
            1615            2234     34.8689E-03     36.1739E-03
            1616            2234     34.8689E-03     36.1739E-03
            1634            2234     34.8689E-03     36.1739E-03
            1633            2234     34.8689E-03     36.1739E-03
            1635            2235     37.5458E-03     38.5840E-03
            1616            2235     37.5458E-03     38.5840E-03
            1617            2235     37.5458E-03     38.5840E-03
            1634            2235     37.5458E-03     38.5840E-03
            1636            2236     40.0864E-03     41.0278E-03
            1618            2236     40.0864E-03     41.0278E-03
            1617            2236     40.0864E-03     41.0278E-03
            1635            2236     40.0864E-03     41.0278E-03
            1637            2237     42.5278E-03     43.4301E-03
            1636            2237     42.5278E-03     43.4301E-03
            1618            2237     42.5278E-03     43.4301E-03
            1619            2237     42.5278E-03     43.4301E-03
            1637            2238     44.9500E-03     45.8413E-03
            1638            2238     44.9500E-03     45.8413E-03
            1619            2238     44.9500E-03     45.8413E-03
            1620            2238     44.9500E-03     45.8413E-03
            1639            2239     47.3593E-03     48.2595E-03
            1620            2239     47.3593E-03     48.2595E-03
            1638            2239     47.3593E-03     48.2595E-03
            1621            2239     47.3593E-03     48.2595E-03
            1640            2240     49.7889E-03     50.7071E-03
            1622            2240     49.7889E-03     50.7071E-03
            1621            2240     49.7889E-03     50.7071E-03
            1639            2240     49.7889E-03     50.7071E-03
            1641            2241     52.2274E-03     53.1817E-03
            1622            2241     52.2274E-03     53.1817E-03
            1640            2241     52.2274E-03     53.1817E-03
            1623            2241     52.2274E-03     53.1817E-03
            1624            2242     54.6898E-03     55.6940E-03
            1642            2242     54.6898E-03     55.6940E-03
            1623            2242     54.6898E-03     55.6940E-03
            1641            2242     54.6898E-03     55.6940E-03
            1625            2243     57.1524E-03     58.2335E-03
            1624            2243     57.1524E-03     58.2335E-03
            1642            2243     57.1524E-03     58.2335E-03
            1643            2243     57.1524E-03     58.2335E-03
            1644            2244     59.6080E-03     60.7915E-03
            1643            2244     59.6080E-03     60.7915E-03
            1625            2244     59.6080E-03     60.7915E-03
            1626            2244     59.6080E-03     60.7915E-03
            1627            2245     62.0082E-03     63.3052E-03
            1645            2245     62.0082E-03     63.3052E-03
            1644            2245     62.0082E-03     63.3052E-03
            1626            2245     62.0082E-03     63.3052E-03
            1627            2246     64.3580E-03     65.7223E-03
            1628            2246     64.3580E-03     65.7223E-03
            1645            2246     64.3580E-03     65.7223E-03
            1646            2246     64.3580E-03     65.7223E-03
            1629            2247     66.5028E-03     67.8143E-03
            1647            2247     66.5028E-03     67.8143E-03
            1628            2247     66.5028E-03     67.8143E-03
            1646            2247     66.5028E-03     67.8143E-03
            1648            2248     68.3515E-03     69.4426E-03
            1647            2248     68.3515E-03     69.4426E-03
            1630            2248     68.3515E-03     69.4426E-03
            1629            2248     68.3515E-03     69.4426E-03
            1649            2249     28.3238E-03     30.2837E-03
            1631            2249     28.3238E-03     30.2837E-03
            1650            2249     28.3238E-03     30.2837E-03
            1632            2249     28.3238E-03     30.2837E-03
            1633            2250     32.0525E-03     33.7766E-03
            1632            2250     32.0525E-03     33.7766E-03
            1650            2250     32.0525E-03     33.7766E-03
            1651            2250     32.0525E-03     33.7766E-03
            1634            2251     35.3162E-03     36.8744E-03
            1652            2251     35.3162E-03     36.8744E-03
            1651            2251     35.3162E-03     36.8744E-03
            1633            2251     35.3162E-03     36.8744E-03
            1652            2252     38.1385E-03     39.4348E-03
            1634            2252     38.1385E-03     39.4348E-03
            1635            2252     38.1385E-03     39.4348E-03
            1653            2252     38.1385E-03     39.4348E-03
            1653            2253     40.6656E-03     41.8115E-03
            1635            2253     40.6656E-03     41.8115E-03
            1636            2253     40.6656E-03     41.8115E-03
            1654            2253     40.6656E-03     41.8115E-03
            1636            2254     43.1050E-03     44.1799E-03
            1637            2254     43.1050E-03     44.1799E-03
            1655            2254     43.1050E-03     44.1799E-03
            1654            2254     43.1050E-03     44.1799E-03
            1638            2255     45.4879E-03     46.5410E-03
            1655            2255     45.4879E-03     46.5410E-03
            1656            2255     45.4879E-03     46.5410E-03
            1637            2255     45.4879E-03     46.5410E-03
            1657            2256     47.8988E-03     48.9637E-03
            1638            2256     47.8988E-03     48.9637E-03
            1656            2256     47.8988E-03     48.9637E-03
            1639            2256     47.8988E-03     48.9637E-03
            1640            2257     50.3207E-03     51.4260E-03
            1658            2257     50.3207E-03     51.4260E-03
            1657            2257     50.3207E-03     51.4260E-03
            1639            2257     50.3207E-03     51.4260E-03
            1641            2258     52.7914E-03     53.9579E-03
            1659            2258     52.7914E-03     53.9579E-03
            1640            2258     52.7914E-03     53.9579E-03
            1658            2258     52.7914E-03     53.9579E-03
            1641            2259     55.2846E-03     56.5475E-03
            1659            2259     55.2846E-03     56.5475E-03
            1660            2259     55.2846E-03     56.5475E-03
            1642            2259     55.2846E-03     56.5475E-03
            1660            2260     57.8374E-03     59.2068E-03
            1661            2260     57.8374E-03     59.2068E-03
            1643            2260     57.8374E-03     59.2068E-03
            1642            2260     57.8374E-03     59.2068E-03
            1662            2261     60.3885E-03     61.9052E-03
            1643            2261     60.3885E-03     61.9052E-03
            1661            2261     60.3885E-03     61.9052E-03
            1644            2261     60.3885E-03     61.9052E-03
            1645            2262     62.9591E-03     64.5772E-03
            1644            2262     62.9591E-03     64.5772E-03
            1663            2262     62.9591E-03     64.5772E-03
            1662            2262     62.9591E-03     64.5772E-03
            1645            2263     65.4177E-03     67.0749E-03
            1664            2263     65.4177E-03     67.0749E-03
            1646            2263     65.4177E-03     67.0749E-03
            1663            2263     65.4177E-03     67.0749E-03
            1665            2264     67.6372E-03     69.2036E-03
            1646            2264     67.6372E-03     69.2036E-03
            1664            2264     67.6372E-03     69.2036E-03
            1647            2264     67.6372E-03     69.2036E-03
            1665            2265     69.7324E-03     70.7024E-03
            1666            2265     69.7324E-03     70.7024E-03
            1647            2265     69.7324E-03     70.7024E-03
            1648            2265     69.7324E-03     70.7024E-03
            1667            2266     29.1975E-03     31.1608E-03
            1668            2266     29.1975E-03     31.1608E-03
            1649            2266     29.1975E-03     31.1608E-03
            1650            2266     29.1975E-03     31.1608E-03
            1668            2267     32.7597E-03     34.6099E-03
            1650            2267     32.7597E-03     34.6099E-03
            1669            2267     32.7597E-03     34.6099E-03
            1651            2267     32.7597E-03     34.6099E-03
            1651            2268     35.8779E-03     37.4915E-03
            1669            2268     35.8779E-03     37.4915E-03
            1652            2268     35.8779E-03     37.4915E-03
            1670            2268     35.8779E-03     37.4915E-03
            1671            2269     38.5760E-03     40.0389E-03
            1670            2269     38.5760E-03     40.0389E-03
            1652            2269     38.5760E-03     40.0389E-03
            1653            2269     38.5760E-03     40.0389E-03
            1654            2270     41.0263E-03     42.3282E-03
            1671            2270     41.0263E-03     42.3282E-03
            1672            2270     41.0263E-03     42.3282E-03
            1653            2270     41.0263E-03     42.3282E-03
            1672            2271     43.3454E-03     44.5662E-03
            1655            2271     43.3454E-03     44.5662E-03
            1654            2271     43.3454E-03     44.5662E-03
            1673            2271     43.3454E-03     44.5662E-03
            1674            2272     45.6909E-03     46.8877E-03
            1655            2272     45.6909E-03     46.8877E-03
            1673            2272     45.6909E-03     46.8877E-03
            1656            2272     45.6909E-03     46.8877E-03
            1656            2273     48.0409E-03     49.2515E-03
            1674            2273     48.0409E-03     49.2515E-03
            1675            2273     48.0409E-03     49.2515E-03
            1657            2273     48.0409E-03     49.2515E-03
            1657            2274     50.4472E-03     51.7023E-03
            1675            2274     50.4472E-03     51.7023E-03
            1658            2274     50.4472E-03     51.7023E-03
            1676            2274     50.4472E-03     51.7023E-03
            1676            2275     52.8863E-03     54.2185E-03
            1658            2275     52.8863E-03     54.2185E-03
            1659            2275     52.8863E-03     54.2185E-03
            1677            2275     52.8863E-03     54.2185E-03
            1659            2276     55.4004E-03     56.8279E-03
            1660            2276     55.4004E-03     56.8279E-03
            1677            2276     55.4004E-03     56.8279E-03
            1678            2276     55.4004E-03     56.8279E-03
            1679            2277     57.9535E-03     59.5203E-03
            1661            2277     57.9535E-03     59.5203E-03
            1660            2277     57.9535E-03     59.5203E-03
            1678            2277     57.9535E-03     59.5203E-03
            1680            2278     60.6284E-03     62.2981E-03
            1679            2278     60.6284E-03     62.2981E-03
            1661            2278     60.6284E-03     62.2981E-03
            1662            2278     60.6284E-03     62.2981E-03
            1662            2279     63.3205E-03     65.1122E-03
            1680            2279     63.3205E-03     65.1122E-03
            1663            2279     63.3205E-03     65.1122E-03
            1681            2279     63.3205E-03     65.1122E-03
            1664            2280     65.9869E-03     67.7877E-03
            1682            2280     65.9869E-03     67.7877E-03
            1663            2280     65.9869E-03     67.7877E-03
            1681            2280     65.9869E-03     67.7877E-03
            1683            2281     68.5498E-03     70.0618E-03
            1664            2281     68.5498E-03     70.0618E-03
            1665            2281     68.5498E-03     70.0618E-03
            1682            2281     68.5498E-03     70.0618E-03
            1683            2282     70.7031E-03     71.9406E-03
            1666            2282     70.7031E-03     71.9406E-03
            1684            2282     70.7031E-03     71.9406E-03
            1665            2282     70.7031E-03     71.9406E-03
            1686            2283     30.3895E-03     32.4030E-03
            1668            2283     30.3895E-03     32.4030E-03
            1667            2283     30.3895E-03     32.4030E-03
            1685            2283     30.3895E-03     32.4030E-03
            1668            2284     33.7486E-03     35.5894E-03
            1687            2284     33.7486E-03     35.5894E-03
            1686            2284     33.7486E-03     35.5894E-03
            1669            2284     33.7486E-03     35.5894E-03
            1688            2285     36.5497E-03     38.2654E-03
            1669            2285     36.5497E-03     38.2654E-03
            1670            2285     36.5497E-03     38.2654E-03
            1687            2285     36.5497E-03     38.2654E-03
            1689            2286     38.9271E-03     40.4370E-03
            1688            2286     38.9271E-03     40.4370E-03
            1671            2286     38.9271E-03     40.4370E-03
            1670            2286     38.9271E-03     40.4370E-03
            1671            2287     41.0873E-03     42.4823E-03
            1689            2287     41.0873E-03     42.4823E-03
            1690            2287     41.0873E-03     42.4823E-03
            1672            2287     41.0873E-03     42.4823E-03
            1672            2288     43.3026E-03     44.6335E-03
            1691            2288     43.3026E-03     44.6335E-03
            1673            2288     43.3026E-03     44.6335E-03
            1690            2288     43.3026E-03     44.6335E-03
            1674            2289     45.5312E-03     46.8433E-03
            1691            2289     45.5312E-03     46.8433E-03
            1692            2289     45.5312E-03     46.8433E-03
            1673            2289     45.5312E-03     46.8433E-03
            1674            2290     47.8258E-03     49.1529E-03
            1692            2290     47.8258E-03     49.1529E-03
            1675            2290     47.8258E-03     49.1529E-03
            1693            2290     47.8258E-03     49.1529E-03
            1694            2291     50.1604E-03     51.5283E-03
            1675            2291     50.1604E-03     51.5283E-03
            1693            2291     50.1604E-03     51.5283E-03
            1676            2291     50.1604E-03     51.5283E-03
            1695            2292     52.5592E-03     53.9906E-03
            1676            2292     52.5592E-03     53.9906E-03
            1677            2292     52.5592E-03     53.9906E-03
            1694            2292     52.5592E-03     53.9906E-03
            1696            2293     55.0095E-03     56.5347E-03
            1677            2293     55.0095E-03     56.5347E-03
            1678            2293     55.0095E-03     56.5347E-03
            1695            2293     55.0095E-03     56.5347E-03
            1697            2294     57.5699E-03     59.1938E-03
            1696            2294     57.5699E-03     59.1938E-03
            1679            2294     57.5699E-03     59.1938E-03
            1678            2294     57.5699E-03     59.1938E-03
            1680            2295     60.2156E-03     61.9719E-03
            1679            2295     60.2156E-03     61.9719E-03
            1697            2295     60.2156E-03     61.9719E-03
            1698            2295     60.2156E-03     61.9719E-03
            1680            2296     63.1019E-03     64.8909E-03
            1681            2296     63.1019E-03     64.8909E-03
            1698            2296     63.1019E-03     64.8909E-03
            1699            2296     63.1019E-03     64.8909E-03
            1681            2297     66.0980E-03     67.8749E-03
            1682            2297     66.0980E-03     67.8749E-03
            1700            2297     66.0980E-03     67.8749E-03
            1699            2297     66.0980E-03     67.8749E-03
            1701            2298     68.9813E-03     70.6791E-03
            1683            2298     68.9813E-03     70.6791E-03
            1682            2298     68.9813E-03     70.6791E-03
            1700            2298     68.9813E-03     70.6791E-03
            1684            2299     71.7356E-03     72.8393E-03
            1701            2299     71.7356E-03     72.8393E-03
            1702            2299     71.7356E-03     72.8393E-03
            1683            2299     71.7356E-03     72.8393E-03
            1686            2300     32.0261E-03     34.0268E-03
            1685            2300     32.0261E-03     34.0268E-03
            1703            2300     32.0261E-03     34.0268E-03
            1704            2300     32.0261E-03     34.0268E-03
            1704            2301     35.1302E-03     37.0730E-03
            1687            2301     35.1302E-03     37.0730E-03
            1686            2301     35.1302E-03     37.0730E-03
            1705            2301     35.1302E-03     37.0730E-03
            1705            2302     37.2886E-03     38.9517E-03
            1688            2302     37.2886E-03     38.9517E-03
            1706            2302     37.2886E-03     38.9517E-03
            1687            2302     37.2886E-03     38.9517E-03
            1706            2303     38.9972E-03     40.5040E-03
            1689            2303     38.9972E-03     40.5040E-03
            1688            2303     38.9972E-03     40.5040E-03
            1707            2303     38.9972E-03     40.5040E-03
            1708            2304     40.9325E-03     42.3715E-03
            1690            2304     40.9325E-03     42.3715E-03
            1689            2304     40.9325E-03     42.3715E-03
            1707            2304     40.9325E-03     42.3715E-03
            1708            2305     42.9600E-03     44.3739E-03
            1691            2305     42.9600E-03     44.3739E-03
            1709            2305     42.9600E-03     44.3739E-03
            1690            2305     42.9600E-03     44.3739E-03
            1692            2306     45.0901E-03     46.5010E-03
            1709            2306     45.0901E-03     46.5010E-03
            1710            2306     45.0901E-03     46.5010E-03
            1691            2306     45.0901E-03     46.5010E-03
            1693            2307     47.2893E-03     48.7126E-03
            1711            2307     47.2893E-03     48.7126E-03
            1710            2307     47.2893E-03     48.7126E-03
            1692            2307     47.2893E-03     48.7126E-03
            1711            2308     49.5447E-03     50.9939E-03
            1693            2308     49.5447E-03     50.9939E-03
            1694            2308     49.5447E-03     50.9939E-03
            1712            2308     49.5447E-03     50.9939E-03
            1712            2309     51.8520E-03     53.3386E-03
            1713            2309     51.8520E-03     53.3386E-03
            1694            2309     51.8520E-03     53.3386E-03
            1695            2309     51.8520E-03     53.3386E-03
            1713            2310     54.2237E-03     55.7635E-03
            1714            2310     54.2237E-03     55.7635E-03
            1696            2310     54.2237E-03     55.7635E-03
            1695            2310     54.2237E-03     55.7635E-03
            1696            2311     56.6806E-03     58.2898E-03
            1697            2311     56.6806E-03     58.2898E-03
            1715            2311     56.6806E-03     58.2898E-03
            1714            2311     56.6806E-03     58.2898E-03
            1715            2312     59.3015E-03     60.9837E-03
            1697            2312     59.3015E-03     60.9837E-03
            1698            2312     59.3015E-03     60.9837E-03
            1716            2312     59.3015E-03     60.9837E-03
            1717            2313     62.1278E-03     63.8865E-03
            1698            2313     62.1278E-03     63.8865E-03
            1699            2313     62.1278E-03     63.8865E-03
            1716            2313     62.1278E-03     63.8865E-03
            1718            2314     65.5054E-03     67.1643E-03
            1717            2314     65.5054E-03     67.1643E-03
            1700            2314     65.5054E-03     67.1643E-03
            1699            2314     65.5054E-03     67.1643E-03
            1718            2315     69.1392E-03     70.6236E-03
            1719            2315     69.1392E-03     70.6236E-03
            1701            2315     69.1392E-03     70.6236E-03
            1700            2315     69.1392E-03     70.6236E-03
            1701            2316     72.2839E-03     73.7819E-03
            1720            2316     72.2839E-03     73.7819E-03
            1702            2316     72.2839E-03     73.7819E-03
            1719            2316     72.2839E-03     73.7819E-03
            1722            2317     34.7055E-03     36.9672E-03
            1703            2317     34.7055E-03     36.9672E-03
            1721            2317     34.7055E-03     36.9672E-03
            1704            2317     34.7055E-03     36.9672E-03
            1723            2318     36.8611E-03     38.5856E-03
            1704            2318     36.8611E-03     38.5856E-03
            1705            2318     36.8611E-03     38.5856E-03
            1722            2318     36.8611E-03     38.5856E-03
            1723            2319     37.5450E-03     39.0299E-03
            1724            2319     37.5450E-03     39.0299E-03
            1706            2319     37.5450E-03     39.0299E-03
            1705            2319     37.5450E-03     39.0299E-03
            1724            2320     38.8546E-03     40.3246E-03
            1707            2320     38.8546E-03     40.3246E-03
            1706            2320     38.8546E-03     40.3246E-03
            1725            2320     38.8546E-03     40.3246E-03
            1708            2321     40.5381E-03     42.0196E-03
            1725            2321     40.5381E-03     42.0196E-03
            1726            2321     40.5381E-03     42.0196E-03
            1707            2321     40.5381E-03     42.0196E-03
            1726            2322     42.4104E-03     43.9105E-03
            1709            2322     42.4104E-03     43.9105E-03
            1727            2322     42.4104E-03     43.9105E-03
            1708            2322     42.4104E-03     43.9105E-03
            1727            2323     44.4379E-03     45.9529E-03
            1728            2323     44.4379E-03     45.9529E-03
            1709            2323     44.4379E-03     45.9529E-03
            1710            2323     44.4379E-03     45.9529E-03
            1728            2324     46.5314E-03     48.0545E-03
            1711            2324     46.5314E-03     48.0545E-03
            1729            2324     46.5314E-03     48.0545E-03
            1710            2324     46.5314E-03     48.0545E-03
            1711            2325     48.6899E-03     50.2128E-03
            1729            2325     48.6899E-03     50.2128E-03
            1730            2325     48.6899E-03     50.2128E-03
            1712            2325     48.6899E-03     50.2128E-03
            1730            2326     50.8825E-03     52.4028E-03
            1712            2326     50.8825E-03     52.4028E-03
            1731            2326     50.8825E-03     52.4028E-03
            1713            2326     50.8825E-03     52.4028E-03
            1732            2327     53.1358E-03     54.6458E-03
            1713            2327     53.1358E-03     54.6458E-03
            1731            2327     53.1358E-03     54.6458E-03
            1714            2327     53.1358E-03     54.6458E-03
            1715            2328     55.4552E-03     56.9678E-03
            1732            2328     55.4552E-03     56.9678E-03
            1714            2328     55.4552E-03     56.9678E-03
            1733            2328     55.4552E-03     56.9678E-03
            1716            2329     57.9306E-03     59.4378E-03
            1715            2329     57.9306E-03     59.4378E-03
            1733            2329     57.9306E-03     59.4378E-03
            1734            2329     57.9306E-03     59.4378E-03
            1735            2330     60.6487E-03     62.1886E-03
            1717            2330     60.6487E-03     62.1886E-03
            1716            2330     60.6487E-03     62.1886E-03
            1734            2330     60.6487E-03     62.1886E-03
            1735            2331     63.8337E-03     65.3894E-03
            1736            2331     63.8337E-03     65.3894E-03
            1717            2331     63.8337E-03     65.3894E-03
            1718            2331     63.8337E-03     65.3894E-03
            1719            2332     68.2691E-03     69.5279E-03
            1718            2332     68.2691E-03     69.5279E-03
            1736            2332     68.2691E-03     69.5279E-03
            1737            2332     68.2691E-03     69.5279E-03
            1737            2333     72.9000E-03     73.5351E-03
            1720            2333     72.9000E-03     73.5351E-03
            1738            2333     72.9000E-03     73.5351E-03
            1719            2333     72.9000E-03     73.5351E-03
            1721            2334     38.6270E-03     39.9169E-03
            1740            2334     38.6270E-03     39.9169E-03
            1739            2334     38.6270E-03     39.9169E-03
            1722            2334     38.6270E-03     39.9169E-03
            1740            2335     37.5074E-03     38.6433E-03
            1722            2335     37.5074E-03     38.6433E-03
            1741            2335     37.5074E-03     38.6433E-03
            1723            2335     37.5074E-03     38.6433E-03
            1741            2336     37.3487E-03     38.6841E-03
            1742            2336     37.3487E-03     38.6841E-03
            1724            2336     37.3487E-03     38.6841E-03
            1723            2336     37.3487E-03     38.6841E-03
            1724            2337     38.5063E-03     39.9716E-03
            1725            2337     38.5063E-03     39.9716E-03
            1743            2337     38.5063E-03     39.9716E-03
            1742            2337     38.5063E-03     39.9716E-03
            1726            2338     39.9670E-03     41.5359E-03
            1744            2338     39.9670E-03     41.5359E-03
            1725            2338     39.9670E-03     41.5359E-03
            1743            2338     39.9670E-03     41.5359E-03
            1726            2339     41.7669E-03     43.3931E-03
            1727            2339     41.7669E-03     43.3931E-03
            1745            2339     41.7669E-03     43.3931E-03
            1744            2339     41.7669E-03     43.3931E-03
            1746            2340     43.6665E-03     45.3197E-03
            1745            2340     43.6665E-03     45.3197E-03
            1728            2340     43.6665E-03     45.3197E-03
            1727            2340     43.6665E-03     45.3197E-03
            1728            2341     45.6717E-03     47.3237E-03
            1747            2341     45.6717E-03     47.3237E-03
            1746            2341     45.6717E-03     47.3237E-03
            1729            2341     45.6717E-03     47.3237E-03
            1730            2342     47.7036E-03     49.3283E-03
            1748            2342     47.7036E-03     49.3283E-03
            1729            2342     47.7036E-03     49.3283E-03
            1747            2342     47.7036E-03     49.3283E-03
            1730            2343     49.7819E-03     51.3514E-03
            1749            2343     49.7819E-03     51.3514E-03
            1731            2343     49.7819E-03     51.3514E-03
            1748            2343     49.7819E-03     51.3514E-03
            1732            2344     51.8803E-03     53.3688E-03
            1750            2344     51.8803E-03     53.3688E-03
            1749            2344     51.8803E-03     53.3688E-03
            1731            2344     51.8803E-03     53.3688E-03
            1733            2345     54.0616E-03     55.4356E-03
            1751            2345     54.0616E-03     55.4356E-03
            1732            2345     54.0616E-03     55.4356E-03
            1750            2345     54.0616E-03     55.4356E-03
            1752            2346     56.3230E-03     57.5772E-03
            1751            2346     56.3230E-03     57.5772E-03
            1734            2346     56.3230E-03     57.5772E-03
            1733            2346     56.3230E-03     57.5772E-03
            1752            2347     58.8592E-03     59.9777E-03
            1734            2347     58.8592E-03     59.9777E-03
            1753            2347     58.8592E-03     59.9777E-03
            1735            2347     58.8592E-03     59.9777E-03
            1753            2348     61.7093E-03     62.7796E-03
            1736            2348     61.7093E-03     62.7796E-03
            1754            2348     61.7093E-03     62.7796E-03
            1735            2348     61.7093E-03     62.7796E-03
            1737            2349     65.6179E-03     66.7734E-03
            1754            2349     65.6179E-03     66.7734E-03
            1755            2349     65.6179E-03     66.7734E-03
            1736            2349     65.6179E-03     66.7734E-03
            1756            2350     71.7302E-03     72.5393E-03
            1737            2350     71.7302E-03     72.5393E-03
            1738            2350     71.7302E-03     72.5393E-03
            1755            2350     71.7302E-03     72.5393E-03
            2271            2785     451.537E-06     506.265E-06
            2290            2785     451.537E-06     506.265E-06
            2289            2785     451.537E-06     506.265E-06
            2272            2785     451.537E-06     506.265E-06
            2291            2786     418.986E-06     473.869E-06
            2290            2786     418.986E-06     473.869E-06
            2272            2786     418.986E-06     473.869E-06
            2273            2786     418.986E-06     473.869E-06
            2273            2787     420.052E-06     467.500E-06
            2291            2787     420.052E-06     467.500E-06
            2292            2787     420.052E-06     467.500E-06
            2274            2787     420.052E-06     467.500E-06
            2275            2788     416.094E-06     461.443E-06
            2292            2788     416.094E-06     461.443E-06
            2274            2788     416.094E-06     461.443E-06
            2293            2788     416.094E-06     461.443E-06
            2275            2789     406.388E-06     452.296E-06
            2294            2789     406.388E-06     452.296E-06
            2293            2789     406.388E-06     452.296E-06
            2276            2789     406.388E-06     452.296E-06
            2294            2790     402.545E-06     446.164E-06
            2295            2790     402.545E-06     446.164E-06
            2276            2790     402.545E-06     446.164E-06
            2277            2790     402.545E-06     446.164E-06
            2295            2791     397.741E-06     439.616E-06
            2278            2791     397.741E-06     439.616E-06
            2296            2791     397.741E-06     439.616E-06
            2277            2791     397.741E-06     439.616E-06
            2297            2792     395.043E-06     434.480E-06
            2296            2792     395.043E-06     434.480E-06
            2278            2792     395.043E-06     434.480E-06
            2279            2792     395.043E-06     434.480E-06
            2279            2793     392.276E-06     429.152E-06
            2298            2793     392.276E-06     429.152E-06
            2280            2793     392.276E-06     429.152E-06
            2297            2793     392.276E-06     429.152E-06
            2280            2794     390.536E-06     424.569E-06
            2281            2794     390.536E-06     424.569E-06
            2298            2794     390.536E-06     424.569E-06
            2299            2794     390.536E-06     424.569E-06
            2299            2795     389.112E-06     420.057E-06
            2282            2795     389.112E-06     420.057E-06
            2281            2795     389.112E-06     420.057E-06
            2300            2795     389.112E-06     420.057E-06
            2282            2796     388.374E-06     416.003E-06
            2283            2796     388.374E-06     416.003E-06
            2300            2796     388.374E-06     416.003E-06
            2301            2796     388.374E-06     416.003E-06
            2283            2797     388.078E-06     412.251E-06
            2301            2797     388.078E-06     412.251E-06
            2302            2797     388.078E-06     412.251E-06
            2284            2797     388.078E-06     412.251E-06
            2284            2798     388.463E-06     408.875E-06
            2285            2798     388.463E-06     408.875E-06
            2303            2798     388.463E-06     408.875E-06
            2302            2798     388.463E-06     408.875E-06
            2285            2799     389.698E-06     406.290E-06
            2303            2799     389.698E-06     406.290E-06
            2304            2799     389.698E-06     406.290E-06
            2286            2799     389.698E-06     406.290E-06
            2287            2800     392.046E-06     404.801E-06
            2305            2800     392.046E-06     404.801E-06
            2286            2800     392.046E-06     404.801E-06
            2304            2800     392.046E-06     404.801E-06
            2288            2801     396.011E-06     400.337E-06
            2305            2801     396.011E-06     400.337E-06
            2287            2801     396.011E-06     400.337E-06
            2306            2801     396.011E-06     400.337E-06
            2290            2802     328.613E-06     346.597E-06
            2308            2802     328.613E-06     346.597E-06
            2289            2802     328.613E-06     346.597E-06
            2307            2802     328.613E-06     346.597E-06
            2309            2803     455.381E-06     463.585E-06
            2291            2803     455.381E-06     463.585E-06
            2308            2803     455.381E-06     463.585E-06
            2290            2803     455.381E-06     463.585E-06
            2309            2804     457.933E-06     457.606E-06
            2292            2804     457.933E-06     457.606E-06
            2291            2804     457.933E-06     457.606E-06
            2310            2804     457.933E-06     457.606E-06
            2310            2805     435.558E-06     443.660E-06
            2293            2805     435.558E-06     443.660E-06
            2311            2805     435.558E-06     443.660E-06
            2292            2805     435.558E-06     443.660E-06
            2311            2806     430.100E-06     435.295E-06
            2312            2806     430.100E-06     435.295E-06
            2294            2806     430.100E-06     435.295E-06
            2293            2806     430.100E-06     435.295E-06
            2313            2807     423.120E-06     429.182E-06
            2294            2807     423.120E-06     429.182E-06
            2312            2807     423.120E-06     429.182E-06
            2295            2807     423.120E-06     429.182E-06
            2296            2808     419.293E-06     425.227E-06
            2313            2808     419.293E-06     425.227E-06
            2295            2808     419.293E-06     425.227E-06
            2314            2808     419.293E-06     425.227E-06
            2296            2809     414.754E-06     420.670E-06
            2315            2809     414.754E-06     420.670E-06
            2314            2809     414.754E-06     420.670E-06
            2297            2809     414.754E-06     420.670E-06
            2298            2810     411.280E-06     417.088E-06
            2315            2810     411.280E-06     417.088E-06
            2297            2810     411.280E-06     417.088E-06
            2316            2810     411.280E-06     417.088E-06
            2298            2811     407.694E-06     413.528E-06
            2299            2811     407.694E-06     413.528E-06
            2317            2811     407.694E-06     413.528E-06
            2316            2811     407.694E-06     413.528E-06
            2318            2812     404.850E-06     410.505E-06
            2317            2812     404.850E-06     410.505E-06
            2300            2812     404.850E-06     410.505E-06
            2299            2812     404.850E-06     410.505E-06
            2319            2813     402.195E-06     407.746E-06
            2301            2813     402.195E-06     407.746E-06
            2318            2813     402.195E-06     407.746E-06
            2300            2813     402.195E-06     407.746E-06
            2319            2814     399.716E-06     405.852E-06
            2320            2814     399.716E-06     405.852E-06
            2301            2814     399.716E-06     405.852E-06
            2302            2814     399.716E-06     405.852E-06
            2302            2815     399.075E-06     402.789E-06
            2321            2815     399.075E-06     402.789E-06
            2320            2815     399.075E-06     402.789E-06
            2303            2815     399.075E-06     402.789E-06
            2303            2816     396.447E-06     403.813E-06
            2322            2816     396.447E-06     403.813E-06
            2321            2816     396.447E-06     403.813E-06
            2304            2816     396.447E-06     403.813E-06
            2322            2817     397.761E-06     408.517E-06
            2305            2817     397.761E-06     408.517E-06
            2323            2817     397.761E-06     408.517E-06
            2304            2817     397.761E-06     408.517E-06
            2323            2818     423.540E-06     392.533E-06
            2305            2818     423.540E-06     392.533E-06
            2324            2818     423.540E-06     392.533E-06
            2306            2818     423.540E-06     392.533E-06
            2326            2819     251.190E-06     292.293E-06
            2307            2819     251.190E-06     292.293E-06
            2325            2819     251.190E-06     292.293E-06
            2308            2819     251.190E-06     292.293E-06
            2327            2820     440.126E-06     399.505E-06
            2309            2820     440.126E-06     399.505E-06
            2326            2820     440.126E-06     399.505E-06
            2308            2820     440.126E-06     399.505E-06
            2328            2821     467.888E-06     426.779E-06
            2309            2821     467.888E-06     426.779E-06
            2327            2821     467.888E-06     426.779E-06
            2310            2821     467.888E-06     426.779E-06
            2328            2822     462.717E-06     425.347E-06
            2311            2822     462.717E-06     425.347E-06
            2310            2822     462.717E-06     425.347E-06
            2329            2822     462.717E-06     425.347E-06
            2311            2823     456.284E-06     420.513E-06
            2330            2823     456.284E-06     420.513E-06
            2312            2823     456.284E-06     420.513E-06
            2329            2823     456.284E-06     420.513E-06
            2330            2824     451.647E-06     418.008E-06
            2312            2824     451.647E-06     418.008E-06
            2331            2824     451.647E-06     418.008E-06
            2313            2824     451.647E-06     418.008E-06
            2313            2825     446.672E-06     415.108E-06
            2314            2825     446.672E-06     415.108E-06
            2332            2825     446.672E-06     415.108E-06
            2331            2825     446.672E-06     415.108E-06
            2314            2826     442.316E-06     412.904E-06
            2315            2826     442.316E-06     412.904E-06
            2332            2826     442.316E-06     412.904E-06
            2333            2826     442.316E-06     412.904E-06
            2334            2827     437.667E-06     410.745E-06
            2316            2827     437.667E-06     410.745E-06
            2315            2827     437.667E-06     410.745E-06
            2333            2827     437.667E-06     410.745E-06
            2316            2828     433.454E-06     409.108E-06
            2335            2828     433.454E-06     409.108E-06
            2317            2828     433.454E-06     409.108E-06
            2334            2828     433.454E-06     409.108E-06
            2335            2829     429.295E-06     407.812E-06
            2317            2829     429.295E-06     407.812E-06
            2318            2829     429.295E-06     407.812E-06
            2336            2829     429.295E-06     407.812E-06
            2319            2830     425.476E-06     407.019E-06
            2336            2830     425.476E-06     407.019E-06
            2318            2830     425.476E-06     407.019E-06
            2337            2830     425.476E-06     407.019E-06
            2338            2831     421.925E-06     406.629E-06
            2320            2831     421.925E-06     406.629E-06
            2319            2831     421.925E-06     406.629E-06
            2337            2831     421.925E-06     406.629E-06
            2339            2832     418.742E-06     406.871E-06
            2320            2832     418.742E-06     406.871E-06
            2321            2832     418.742E-06     406.871E-06
            2338            2832     418.742E-06     406.871E-06
            2322            2833     415.945E-06     407.905E-06
            2339            2833     415.945E-06     407.905E-06
            2321            2833     415.945E-06     407.905E-06
            2340            2833     415.945E-06     407.905E-06
            2340            2834     413.939E-06     410.401E-06
            2323            2834     413.939E-06     410.401E-06
            2322            2834     413.939E-06     410.401E-06
            2341            2834     413.939E-06     410.401E-06
            2341            2835     412.760E-06     412.868E-06
            2342            2835     412.760E-06     412.868E-06
            2323            2835     412.760E-06     412.868E-06
            2324            2835     412.760E-06     412.868E-06
            3393            3784     20.6317E-03     20.3924E-03
            3394            3784     20.6317E-03     20.3924E-03
            3411            3784     20.6317E-03     20.3924E-03
            3412            3784     20.6317E-03     20.3924E-03
            3412            3785     10.6548E-03     10.3254E-03
            3395            3785     10.6548E-03     10.3254E-03
            3394            3785     10.6548E-03     10.3254E-03
            3413            3785     10.6548E-03     10.3254E-03
            3395            3786     5.16508E-03     4.89664E-03
            3396            3786     5.16508E-03     4.89664E-03
            3413            3786     5.16508E-03     4.89664E-03
            3414            3786     5.16508E-03     4.89664E-03
            3397            3787     5.99130E-03     6.18237E-03
            3396            3787     5.99130E-03     6.18237E-03
            3415            3787     5.99130E-03     6.18237E-03
            3414            3787     5.99130E-03     6.18237E-03
            3397            3788     11.0750E-03     11.6582E-03
            3398            3788     11.0750E-03     11.6582E-03
            3416            3788     11.0750E-03     11.6582E-03
            3415            3788     11.0750E-03     11.6582E-03
            3417            3789     17.0004E-03     17.7422E-03
            3416            3789     17.0004E-03     17.7422E-03
            3398            3789     17.0004E-03     17.7422E-03
            3399            3789     17.0004E-03     17.7422E-03
            3399            3790     23.1069E-03     23.9572E-03
            3417            3790     23.1069E-03     23.9572E-03
            3418            3790     23.1069E-03     23.9572E-03
            3400            3790     23.1069E-03     23.9572E-03
            3401            3791     29.2489E-03     30.2151E-03
            3400            3791     29.2489E-03     30.2151E-03
            3419            3791     29.2489E-03     30.2151E-03
            3418            3791     29.2489E-03     30.2151E-03
            3401            3792     35.4226E-03     36.4928E-03
            3419            3792     35.4226E-03     36.4928E-03
            3420            3792     35.4226E-03     36.4928E-03
            3402            3792     35.4226E-03     36.4928E-03
            3421            3793     41.5874E-03     42.7717E-03
            3403            3793     41.5874E-03     42.7717E-03
            3420            3793     41.5874E-03     42.7717E-03
            3402            3793     41.5874E-03     42.7717E-03
            3403            3794     47.7421E-03     49.0240E-03
            3404            3794     47.7421E-03     49.0240E-03
            3422            3794     47.7421E-03     49.0240E-03
            3421            3794     47.7421E-03     49.0240E-03
            3404            3795     53.8861E-03     55.2660E-03
            3422            3795     53.8861E-03     55.2660E-03
            3405            3795     53.8861E-03     55.2660E-03
            3423            3795     53.8861E-03     55.2660E-03
            3424            3796     59.9974E-03     61.4552E-03
            3423            3796     59.9974E-03     61.4552E-03
            3406            3796     59.9974E-03     61.4552E-03
            3405            3796     59.9974E-03     61.4552E-03
            3425            3797     66.2336E-03     67.7245E-03
            3407            3797     66.2336E-03     67.7245E-03
            3424            3797     66.2336E-03     67.7245E-03
            3406            3797     66.2336E-03     67.7245E-03
            3408            3798     72.4735E-03     74.0799E-03
            3426            3798     72.4735E-03     74.0799E-03
            3407            3798     72.4735E-03     74.0799E-03
            3425            3798     72.4735E-03     74.0799E-03
            3408            3799     79.7623E-03     81.3975E-03
            3426            3799     79.7623E-03     81.3975E-03
            3409            3799     79.7623E-03     81.3975E-03
            3427            3799     79.7623E-03     81.3975E-03
            3409            3800     89.4696E-03     90.5168E-03
            3427            3800     89.4696E-03     90.5168E-03
            3410            3800     89.4696E-03     90.5168E-03
            3428            3800     89.4696E-03     90.5168E-03
            3411            3801     19.3659E-03     16.9020E-03
            3430            3801     19.3659E-03     16.9020E-03
            3429            3801     19.3659E-03     16.9020E-03
            3412            3801     19.3659E-03     16.9020E-03
            3430            3802     12.9532E-03     11.3513E-03
            3412            3802     12.9532E-03     11.3513E-03
            3413            3802     12.9532E-03     11.3513E-03
            3431            3802     12.9532E-03     11.3513E-03
            3413            3803     7.94496E-03     7.22327E-03
            3431            3803     7.94496E-03     7.22327E-03
            3414            3803     7.94496E-03     7.22327E-03
            3432            3803     7.94496E-03     7.22327E-03
            3414            3804     7.78545E-03     7.93633E-03
            3415            3804     7.78545E-03     7.93633E-03
            3432            3804     7.78545E-03     7.93633E-03
            3433            3804     7.78545E-03     7.93633E-03
            3434            3805     11.8714E-03     12.4994E-03
            3415            3805     11.8714E-03     12.4994E-03
            3433            3805     11.8714E-03     12.4994E-03
            3416            3805     11.8714E-03     12.4994E-03
            3417            3806     17.4214E-03     18.2598E-03
            3435            3806     17.4214E-03     18.2598E-03
            3416            3806     17.4214E-03     18.2598E-03
            3434            3806     17.4214E-03     18.2598E-03
            3418            3807     23.4398E-03     24.3860E-03
            3435            3807     23.4398E-03     24.3860E-03
            3436            3807     23.4398E-03     24.3860E-03
            3417            3807     23.4398E-03     24.3860E-03
            3418            3808     29.6160E-03     30.6385E-03
            3436            3808     29.6160E-03     30.6385E-03
            3437            3808     29.6160E-03     30.6385E-03
            3419            3808     29.6160E-03     30.6385E-03
            3420            3809     35.8662E-03     36.9590E-03
            3419            3809     35.8662E-03     36.9590E-03
            3437            3809     35.8662E-03     36.9590E-03
            3438            3809     35.8662E-03     36.9590E-03
            3421            3810     42.1665E-03     43.3185E-03
            3438            3810     42.1665E-03     43.3185E-03
            3439            3810     42.1665E-03     43.3185E-03
            3420            3810     42.1665E-03     43.3185E-03
            3439            3811     48.5002E-03     49.7168E-03
            3421            3811     48.5002E-03     49.7168E-03
            3440            3811     48.5002E-03     49.7168E-03
            3422            3811     48.5002E-03     49.7168E-03
            3422            3812     54.8736E-03     56.1640E-03
            3441            3812     54.8736E-03     56.1640E-03
            3440            3812     54.8736E-03     56.1640E-03
            3423            3812     54.8736E-03     56.1640E-03
            3424            3813     61.2986E-03     62.6849E-03
            3423            3813     61.2986E-03     62.6849E-03
            3442            3813     61.2986E-03     62.6849E-03
            3441            3813     61.2986E-03     62.6849E-03
            3442            3814     67.8761E-03     69.3950E-03
            3443            3814     67.8761E-03     69.3950E-03
            3424            3814     67.8761E-03     69.3950E-03
            3425            3814     67.8761E-03     69.3950E-03
            3426            3815     74.6958E-03     76.3469E-03
            3444            3815     74.6958E-03     76.3469E-03
            3443            3815     74.6958E-03     76.3469E-03
            3425            3815     74.6958E-03     76.3469E-03
            3445            3816     82.6736E-03     84.0885E-03
            3426            3816     82.6736E-03     84.0885E-03
            3444            3816     82.6736E-03     84.0885E-03
            3427            3816     82.6736E-03     84.0885E-03
            3446            3817     90.2762E-03     90.5612E-03
            3428            3817     90.2762E-03     90.5612E-03
            3445            3817     90.2762E-03     90.5612E-03
            3427            3817     90.2762E-03     90.5612E-03
            3448            3818     16.3342E-03     14.3319E-03
            3429            3818     16.3342E-03     14.3319E-03
            3430            3818     16.3342E-03     14.3319E-03
            3447            3818     16.3342E-03     14.3319E-03
            3431            3819     12.9959E-03     11.2777E-03
            3430            3819     12.9959E-03     11.2777E-03
            3448            3819     12.9959E-03     11.2777E-03
            3449            3819     12.9959E-03     11.2777E-03
            3431            3820     10.0100E-03     9.20422E-03
            3449            3820     10.0100E-03     9.20422E-03
            3450            3820     10.0100E-03     9.20422E-03
            3432            3820     10.0100E-03     9.20422E-03
            3451            3821     9.76886E-03     9.91067E-03
            3450            3821     9.76886E-03     9.91067E-03
            3433            3821     9.76886E-03     9.91067E-03
            3432            3821     9.76886E-03     9.91067E-03
            3434            3822     13.1450E-03     13.8468E-03
            3452            3822     13.1450E-03     13.8468E-03
            3451            3822     13.1450E-03     13.8468E-03
            3433            3822     13.1450E-03     13.8468E-03
            3434            3823     18.3490E-03     19.2632E-03
            3435            3823     18.3490E-03     19.2632E-03
            3452            3823     18.3490E-03     19.2632E-03
            3453            3823     18.3490E-03     19.2632E-03
            3436            3824     24.1483E-03     25.1704E-03
            3435            3824     24.1483E-03     25.1704E-03
            3453            3824     24.1483E-03     25.1704E-03
            3454            3824     24.1483E-03     25.1704E-03
            3455            3825     30.2235E-03     31.2983E-03
            3437            3825     30.2235E-03     31.2983E-03
            3454            3825     30.2235E-03     31.2983E-03
            3436            3825     30.2235E-03     31.2983E-03
            3437            3826     36.4212E-03     37.5240E-03
            3456            3826     36.4212E-03     37.5240E-03
            3438            3826     36.4212E-03     37.5240E-03
            3455            3826     36.4212E-03     37.5240E-03
            3456            3827     42.6992E-03     43.8237E-03
            3438            3827     42.6992E-03     43.8237E-03
            3457            3827     42.6992E-03     43.8237E-03
            3439            3827     42.6992E-03     43.8237E-03
            3458            3828     49.0467E-03     50.1899E-03
            3439            3828     49.0467E-03     50.1899E-03
            3457            3828     49.0467E-03     50.1899E-03
            3440            3828     49.0467E-03     50.1899E-03
            3458            3829     55.4463E-03     56.6289E-03
            3459            3829     55.4463E-03     56.6289E-03
            3441            3829     55.4463E-03     56.6289E-03
            3440            3829     55.4463E-03     56.6289E-03
            3441            3830     61.9717E-03     63.2168E-03
            3459            3830     61.9717E-03     63.2168E-03
            3442            3830     61.9717E-03     63.2168E-03
            3460            3830     61.9717E-03     63.2168E-03
            3443            3831     68.5238E-03     69.9373E-03
            3442            3831     68.5238E-03     69.9373E-03
            3461            3831     68.5238E-03     69.9373E-03
            3460            3831     68.5238E-03     69.9373E-03
            3444            3832     75.6975E-03     77.0565E-03
            3443            3832     75.6975E-03     77.0565E-03
            3461            3832     75.6975E-03     77.0565E-03
            3462            3832     75.6975E-03     77.0565E-03
            3462            3833     82.7540E-03     84.0487E-03
            3445            3833     82.7540E-03     84.0487E-03
            3444            3833     82.7540E-03     84.0487E-03
            3463            3833     82.7540E-03     84.0487E-03
            3464            3834     87.9901E-03     89.7964E-03
            3463            3834     87.9901E-03     89.7964E-03
            3446            3834     87.9901E-03     89.7964E-03
            3445            3834     87.9901E-03     89.7964E-03
            3465            3835     14.6074E-03     12.6147E-03
            3466            3835     14.6074E-03     12.6147E-03
            3448            3835     14.6074E-03     12.6147E-03
            3447            3835     14.6074E-03     12.6147E-03
            3467            3836     12.3443E-03     11.2766E-03
            3466            3836     12.3443E-03     11.2766E-03
            3448            3836     12.3443E-03     11.2766E-03
            3449            3836     12.3443E-03     11.2766E-03
            3450            3837     10.7307E-03     10.3273E-03
            3467            3837     10.7307E-03     10.3273E-03
            3468            3837     10.7307E-03     10.3273E-03
            3449            3837     10.7307E-03     10.3273E-03
            3468            3838     11.5254E-03     11.7981E-03
            3469            3838     11.5254E-03     11.7981E-03
            3450            3838     11.5254E-03     11.7981E-03
            3451            3838     11.5254E-03     11.7981E-03
            3452            3839     14.7940E-03     15.5883E-03
            3469            3839     14.7940E-03     15.5883E-03
            3451            3839     14.7940E-03     15.5883E-03
            3470            3839     14.7940E-03     15.5883E-03
            3470            3840     19.6539E-03     20.6789E-03
            3453            3840     19.6539E-03     20.6789E-03
            3471            3840     19.6539E-03     20.6789E-03
            3452            3840     19.6539E-03     20.6789E-03
            3471            3841     25.2093E-03     26.3198E-03
            3453            3841     25.2093E-03     26.3198E-03
            3472            3841     25.2093E-03     26.3198E-03
            3454            3841     25.2093E-03     26.3198E-03
            3455            3842     31.0537E-03     32.1897E-03
            3472            3842     31.0537E-03     32.1897E-03
            3454            3842     31.0537E-03     32.1897E-03
            3473            3842     31.0537E-03     32.1897E-03
            3473            3843     37.0647E-03     38.1933E-03
            3455            3843     37.0647E-03     38.1933E-03
            3456            3843     37.0647E-03     38.1933E-03
            3474            3843     37.0647E-03     38.1933E-03
            3474            3844     43.1667E-03     44.2656E-03
            3456            3844     43.1667E-03     44.2656E-03
            3457            3844     43.1667E-03     44.2656E-03
            3475            3844     43.1667E-03     44.2656E-03
            3475            3845     49.3287E-03     50.4008E-03
            3476            3845     49.3287E-03     50.4008E-03
            3458            3845     49.3287E-03     50.4008E-03
            3457            3845     49.3287E-03     50.4008E-03
            3458            3846     55.5605E-03     56.5952E-03
            3476            3846     55.5605E-03     56.5952E-03
            3477            3846     55.5605E-03     56.5952E-03
            3459            3846     55.5605E-03     56.5952E-03
            3477            3847     61.8076E-03     62.8456E-03
            3459            3847     61.8076E-03     62.8456E-03
            3460            3847     61.8076E-03     62.8456E-03
            3478            3847     61.8076E-03     62.8456E-03
            3460            3848     68.1927E-03     69.2139E-03
            3478            3848     68.1927E-03     69.2139E-03
            3461            3848     68.1927E-03     69.2139E-03
            3479            3848     68.1927E-03     69.2139E-03
            3461            3849     74.4670E-03     75.6067E-03
            3480            3849     74.4670E-03     75.6067E-03
            3479            3849     74.4670E-03     75.6067E-03
            3462            3849     74.4670E-03     75.6067E-03
            3480            3850     80.6275E-03     81.8464E-03
            3462            3850     80.6275E-03     81.8464E-03
            3463            3850     80.6275E-03     81.8464E-03
            3481            3850     80.6275E-03     81.8464E-03
            3463            3851     85.7528E-03     86.1658E-03
            3481            3851     85.7528E-03     86.1658E-03
            3464            3851     85.7528E-03     86.1658E-03
            3482            3851     85.7528E-03     86.1658E-03
            3465            3852     12.3345E-03     11.3615E-03
            3466            3852     12.3345E-03     11.3615E-03
            3483            3852     12.3345E-03     11.3615E-03
            3484            3852     12.3345E-03     11.3615E-03
            3485            3853     11.7086E-03     11.0447E-03
            3466            3853     11.7086E-03     11.0447E-03
            3484            3853     11.7086E-03     11.0447E-03
            3467            3853     11.7086E-03     11.0447E-03
            3486            3854     11.6244E-03     11.5223E-03
            3468            3854     11.6244E-03     11.5223E-03
            3467            3854     11.6244E-03     11.5223E-03
            3485            3854     11.6244E-03     11.5223E-03
            3486            3855     13.3370E-03     13.8715E-03
            3469            3855     13.3370E-03     13.8715E-03
            3468            3855     13.3370E-03     13.8715E-03
            3487            3855     13.3370E-03     13.8715E-03
            3488            3856     16.8432E-03     17.8005E-03
            3469            3856     16.8432E-03     17.8005E-03
            3470            3856     16.8432E-03     17.8005E-03
            3487            3856     16.8432E-03     17.8005E-03
            3488            3857     21.4395E-03     22.6113E-03
            3471            3857     21.4395E-03     22.6113E-03
            3470            3857     21.4395E-03     22.6113E-03
            3489            3857     21.4395E-03     22.6113E-03
            3489            3858     26.6451E-03     27.8787E-03
            3472            3858     26.6451E-03     27.8787E-03
            3490            3858     26.6451E-03     27.8787E-03
            3471            3858     26.6451E-03     27.8787E-03
            3490            3859     32.1775E-03     33.3998E-03
            3491            3859     32.1775E-03     33.3998E-03
            3473            3859     32.1775E-03     33.3998E-03
            3472            3859     32.1775E-03     33.3998E-03
            3473            3860     37.8697E-03     39.0407E-03
            3491            3860     37.8697E-03     39.0407E-03
            3474            3860     37.8697E-03     39.0407E-03
            3492            3860     37.8697E-03     39.0407E-03
            3474            3861     43.6535E-03     44.7572E-03
            3492            3861     43.6535E-03     44.7572E-03
            3475            3861     43.6535E-03     44.7572E-03
            3493            3861     43.6535E-03     44.7572E-03
            3476            3862     49.4752E-03     50.4784E-03
            3494            3862     49.4752E-03     50.4784E-03
            3475            3862     49.4752E-03     50.4784E-03
            3493            3862     49.4752E-03     50.4784E-03
            3477            3863     55.2839E-03     56.1915E-03
            3476            3863     55.2839E-03     56.1915E-03
            3494            3863     55.2839E-03     56.1915E-03
            3495            3863     55.2839E-03     56.1915E-03
            3496            3864     61.0518E-03     61.8093E-03
            3478            3864     61.0518E-03     61.8093E-03
            3477            3864     61.0518E-03     61.8093E-03
            3495            3864     61.0518E-03     61.8093E-03
            3497            3865     66.7191E-03     67.3201E-03
            3496            3865     66.7191E-03     67.3201E-03
            3479            3865     66.7191E-03     67.3201E-03
            3478            3865     66.7191E-03     67.3201E-03
            3479            3866     71.9908E-03     72.5038E-03
            3498            3866     71.9908E-03     72.5038E-03
            3497            3866     71.9908E-03     72.5038E-03
            3480            3866     71.9908E-03     72.5038E-03
            3499            3867     76.9590E-03     77.3821E-03
            3480            3867     76.9590E-03     77.3821E-03
            3498            3867     76.9590E-03     77.3821E-03
            3481            3867     76.9590E-03     77.3821E-03
            3482            3868     81.5964E-03     81.6732E-03
            3499            3868     81.5964E-03     81.6732E-03
            3481            3868     81.5964E-03     81.6732E-03
            3500            3868     81.5964E-03     81.6732E-03
            3977            4243     38.0170E-03     57.3795E-03
            3959            4243     38.0170E-03     57.3795E-03
            3960            4243     38.0170E-03     57.3795E-03
            3978            4243     38.0170E-03     57.3795E-03
            3979            4244     28.2589E-03     41.7593E-03
            3978            4244     28.2589E-03     41.7593E-03
            3960            4244     28.2589E-03     41.7593E-03
            3961            4244     28.2589E-03     41.7593E-03
            3961            4245     31.0267E-03     41.4011E-03
            3980            4245     31.0267E-03     41.4011E-03
            3962            4245     31.0267E-03     41.4011E-03
            3979            4245     31.0267E-03     41.4011E-03
            3981            4246     34.2882E-03     43.8574E-03
            3980            4246     34.2882E-03     43.8574E-03
            3963            4246     34.2882E-03     43.8574E-03
            3962            4246     34.2882E-03     43.8574E-03
            3982            4247     36.9959E-03     46.8029E-03
            3963            4247     36.9959E-03     46.8029E-03
            3964            4247     36.9959E-03     46.8029E-03
            3981            4247     36.9959E-03     46.8029E-03
            3982            4248     39.8073E-03     49.7300E-03
            3983            4248     39.8073E-03     49.7300E-03
            3965            4248     39.8073E-03     49.7300E-03
            3964            4248     39.8073E-03     49.7300E-03
            3984            4249     42.9871E-03     52.6330E-03
            3966            4249     42.9871E-03     52.6330E-03
            3965            4249     42.9871E-03     52.6330E-03
            3983            4249     42.9871E-03     52.6330E-03
            3985            4250     46.3598E-03     55.5409E-03
            3966            4250     46.3598E-03     55.5409E-03
            3967            4250     46.3598E-03     55.5409E-03
            3984            4250     46.3598E-03     55.5409E-03
            3967            4251     49.9122E-03     58.4529E-03
            3985            4251     49.9122E-03     58.4529E-03
            3986            4251     49.9122E-03     58.4529E-03
            3968            4251     49.9122E-03     58.4529E-03
            3968            4252     53.5395E-03     61.3657E-03
            3986            4252     53.5395E-03     61.3657E-03
            3969            4252     53.5395E-03     61.3657E-03
            3987            4252     53.5395E-03     61.3657E-03
            3970            4253     57.2516E-03     64.2797E-03
            3987            4253     57.2516E-03     64.2797E-03
            3969            4253     57.2516E-03     64.2797E-03
            3988            4253     57.2516E-03     64.2797E-03
            3971            4254     60.9325E-03     67.1482E-03
            3970            4254     60.9325E-03     67.1482E-03
            3989            4254     60.9325E-03     67.1482E-03
            3988            4254     60.9325E-03     67.1482E-03
            3990            4255     64.6651E-03     69.9651E-03
            3971            4255     64.6651E-03     69.9651E-03
            3989            4255     64.6651E-03     69.9651E-03
            3972            4255     64.6651E-03     69.9651E-03
            3972            4256     68.2364E-03     72.6804E-03
            3990            4256     68.2364E-03     72.6804E-03
            3973            4256     68.2364E-03     72.6804E-03
            3991            4256     68.2364E-03     72.6804E-03
            3991            4257     71.7508E-03     75.1868E-03
            3973            4257     71.7508E-03     75.1868E-03
            3992            4257     71.7508E-03     75.1868E-03
            3974            4257     71.7508E-03     75.1868E-03
            3974            4258     74.8334E-03     77.3350E-03
            3993            4258     74.8334E-03     77.3350E-03
            3975            4258     74.8334E-03     77.3350E-03
            3992            4258     74.8334E-03     77.3350E-03
            3994            4259     77.8273E-03     80.1631E-03
            3976            4259     77.8273E-03     80.1631E-03
            3975            4259     77.8273E-03     80.1631E-03
            3993            4259     77.8273E-03     80.1631E-03
            3995            4260     34.6190E-03     55.7836E-03
            3996            4260     34.6190E-03     55.7836E-03
            3978            4260     34.6190E-03     55.7836E-03
            3977            4260     34.6190E-03     55.7836E-03
            3996            4261     12.3372E-03     30.8812E-03
            3997            4261     12.3372E-03     30.8812E-03
            3978            4261     12.3372E-03     30.8812E-03
            3979            4261     12.3372E-03     30.8812E-03
            3998            4262     15.1174E-03     29.2300E-03
            3979            4262     15.1174E-03     29.2300E-03
            3980            4262     15.1174E-03     29.2300E-03
            3997            4262     15.1174E-03     29.2300E-03
            3980            4263     19.2370E-03     32.7276E-03
            3998            4263     19.2370E-03     32.7276E-03
            3999            4263     19.2370E-03     32.7276E-03
            3981            4263     19.2370E-03     32.7276E-03
            4000            4264     22.3653E-03     36.6287E-03
            3982            4264     22.3653E-03     36.6287E-03
            3981            4264     22.3653E-03     36.6287E-03
            3999            4264     22.3653E-03     36.6287E-03
            3982            4265     26.2743E-03     40.7085E-03
            4000            4265     26.2743E-03     40.7085E-03
            3983            4265     26.2743E-03     40.7085E-03
            4001            4265     26.2743E-03     40.7085E-03
            4002            4266     30.6946E-03     44.7189E-03
            4001            4266     30.6946E-03     44.7189E-03
            3983            4266     30.6946E-03     44.7189E-03
            3984            4266     30.6946E-03     44.7189E-03
            4003            4267     35.4097E-03     48.7123E-03
            4002            4267     35.4097E-03     48.7123E-03
            3985            4267     35.4097E-03     48.7123E-03
            3984            4267     35.4097E-03     48.7123E-03
            4004            4268     40.3601E-03     52.6886E-03
            3985            4268     40.3601E-03     52.6886E-03
            3986            4268     40.3601E-03     52.6886E-03
            4003            4268     40.3601E-03     52.6886E-03
            3986            4269     45.4248E-03     56.6663E-03
            4005            4269     45.4248E-03     56.6663E-03
            4004            4269     45.4248E-03     56.6663E-03
            3987            4269     45.4248E-03     56.6663E-03
            4006            4270     50.5503E-03     60.6075E-03
            3988            4270     50.5503E-03     60.6075E-03
            3987            4270     50.5503E-03     60.6075E-03
            4005            4270     50.5503E-03     60.6075E-03
            4006            4271     55.7217E-03     64.5141E-03
            3988            4271     55.7217E-03     64.5141E-03
            3989            4271     55.7217E-03     64.5141E-03
            4007            4271     55.7217E-03     64.5141E-03
            3990            4272     60.8156E-03     68.3490E-03
            4008            4272     60.8156E-03     68.3490E-03
            3989            4272     60.8156E-03     68.3490E-03
            4007            4272     60.8156E-03     68.3490E-03
            4009            4273     65.9509E-03     72.0882E-03
            3991            4273     65.9509E-03     72.0882E-03
            4008            4273     65.9509E-03     72.0882E-03
            3990            4273     65.9509E-03     72.0882E-03
            4010            4274     70.8053E-03     75.6171E-03
            3991            4274     70.8053E-03     75.6171E-03
            3992            4274     70.8053E-03     75.6171E-03
            4009            4274     70.8053E-03     75.6171E-03
            4011            4275     75.1987E-03     78.9772E-03
            3992            4275     75.1987E-03     78.9772E-03
            4010            4275     75.1987E-03     78.9772E-03
            3993            4275     75.1987E-03     78.9772E-03
            4012            4276     79.6748E-03     81.5621E-03
            3993            4276     79.6748E-03     81.5621E-03
            3994            4276     79.6748E-03     81.5621E-03
            4011            4276     79.6748E-03     81.5621E-03
            4013            4277     36.2500E-03     32.8678E-03
            3996            4277     36.2500E-03     32.8678E-03
            3995            4277     36.2500E-03     32.8678E-03
            4014            4277     36.2500E-03     32.8678E-03
            4015            4278     17.0403E-03     20.4830E-03
            3997            4278     17.0403E-03     20.4830E-03
            4014            4278     17.0403E-03     20.4830E-03
            3996            4278     17.0403E-03     20.4830E-03
            4015            4279     20.0676E-03     22.4926E-03
            3997            4279     20.0676E-03     22.4926E-03
            3998            4279     20.0676E-03     22.4926E-03
            4016            4279     20.0676E-03     22.4926E-03
            4017            4280     22.4212E-03     25.9950E-03
            3998            4280     22.4212E-03     25.9950E-03
            3999            4280     22.4212E-03     25.9950E-03
            4016            4280     22.4212E-03     25.9950E-03
            4017            4281     25.6310E-03     30.0050E-03
            3999            4281     25.6310E-03     30.0050E-03
            4000            4281     25.6310E-03     30.0050E-03
            4018            4281     25.6310E-03     30.0050E-03
            4000            4282     29.6464E-03     34.2665E-03
            4019            4282     29.6464E-03     34.2665E-03
            4001            4282     29.6464E-03     34.2665E-03
            4018            4282     29.6464E-03     34.2665E-03
            4020            4283     34.0806E-03     38.7315E-03
            4002            4283     34.0806E-03     38.7315E-03
            4001            4283     34.0806E-03     38.7315E-03
            4019            4283     34.0806E-03     38.7315E-03
            4003            4284     38.7596E-03     43.2396E-03
            4020            4284     38.7596E-03     43.2396E-03
            4002            4284     38.7596E-03     43.2396E-03
            4021            4284     38.7596E-03     43.2396E-03
            4022            4285     43.5728E-03     47.8114E-03
            4021            4285     43.5728E-03     47.8114E-03
            4003            4285     43.5728E-03     47.8114E-03
            4004            4285     43.5728E-03     47.8114E-03
            4023            4286     48.4746E-03     52.4013E-03
            4005            4286     48.4746E-03     52.4013E-03
            4004            4286     48.4746E-03     52.4013E-03
            4022            4286     48.4746E-03     52.4013E-03
            4024            4287     53.4417E-03     57.0258E-03
            4023            4287     53.4417E-03     57.0258E-03
            4006            4287     53.4417E-03     57.0258E-03
            4005            4287     53.4417E-03     57.0258E-03
            4025            4288     58.4595E-03     61.6813E-03
            4006            4288     58.4595E-03     61.6813E-03
            4007            4288     58.4595E-03     61.6813E-03
            4024            4288     58.4595E-03     61.6813E-03
            4026            4289     63.5451E-03     66.3957E-03
            4025            4289     63.5451E-03     66.3957E-03
            4008            4289     63.5451E-03     66.3957E-03
            4007            4289     63.5451E-03     66.3957E-03
            4008            4290     68.6706E-03     71.1910E-03
            4009            4290     68.6706E-03     71.1910E-03
            4026            4290     68.6706E-03     71.1910E-03
            4027            4290     68.6706E-03     71.1910E-03
            4028            4291     74.0049E-03     76.2049E-03
            4027            4291     74.0049E-03     76.2049E-03
            4010            4291     74.0049E-03     76.2049E-03
            4009            4291     74.0049E-03     76.2049E-03
            4029            4292     79.6322E-03     81.3530E-03
            4011            4292     79.6322E-03     81.3530E-03
            4028            4292     79.6322E-03     81.3530E-03
            4010            4292     79.6322E-03     81.3530E-03
            4011            4293     83.8245E-03     85.0064E-03
            4030            4293     83.8245E-03     85.0064E-03
            4012            4293     83.8245E-03     85.0064E-03
            4029            4293     83.8245E-03     85.0064E-03
            4032            4294     35.3008E-03     30.3315E-03
            4013            4294     35.3008E-03     30.3315E-03
            4014            4294     35.3008E-03     30.3315E-03
            4031            4294     35.3008E-03     30.3315E-03
            4033            4295     16.5389E-03     13.6907E-03
            4032            4295     16.5389E-03     13.6907E-03
            4015            4295     16.5389E-03     13.6907E-03
            4014            4295     16.5389E-03     13.6907E-03
            4033            4296     23.4307E-03     15.7132E-03
            4034            4296     23.4307E-03     15.7132E-03
            4016            4296     23.4307E-03     15.7132E-03
            4015            4296     23.4307E-03     15.7132E-03
            4017            4297     25.9171E-03     19.3416E-03
            4034            4297     25.9171E-03     19.3416E-03
            4035            4297     25.9171E-03     19.3416E-03
            4016            4297     25.9171E-03     19.3416E-03
            4035            4298     29.6517E-03     23.5823E-03
            4018            4298     29.6517E-03     23.5823E-03
            4036            4298     29.6517E-03     23.5823E-03
            4017            4298     29.6517E-03     23.5823E-03
            4019            4299     33.5648E-03     28.0914E-03
            4037            4299     33.5648E-03     28.0914E-03
            4036            4299     33.5648E-03     28.0914E-03
            4018            4299     33.5648E-03     28.0914E-03
            4038            4300     37.8259E-03     32.9319E-03
            4019            4300     37.8259E-03     32.9319E-03
            4020            4300     37.8259E-03     32.9319E-03
            4037            4300     37.8259E-03     32.9319E-03
            4021            4301     42.2777E-03     37.9594E-03
            4039            4301     42.2777E-03     37.9594E-03
            4020            4301     42.2777E-03     37.9594E-03
            4038            4301     42.2777E-03     37.9594E-03
            4022            4302     46.8193E-03     43.0506E-03
            4021            4302     46.8193E-03     43.0506E-03
            4039            4302     46.8193E-03     43.0506E-03
            4040            4302     46.8193E-03     43.0506E-03
            4022            4303     51.4223E-03     48.1985E-03
            4040            4303     51.4223E-03     48.1985E-03
            4041            4303     51.4223E-03     48.1985E-03
            4023            4303     51.4223E-03     48.1985E-03
            4042            4304     56.0879E-03     53.3887E-03
            4024            4304     56.0879E-03     53.3887E-03
            4023            4304     56.0879E-03     53.3887E-03
            4041            4304     56.0879E-03     53.3887E-03
            4042            4305     60.7812E-03     58.6280E-03
            4025            4305     60.7812E-03     58.6280E-03
            4043            4305     60.7812E-03     58.6280E-03
            4024            4305     60.7812E-03     58.6280E-03
            4025            4306     65.5867E-03     63.9352E-03
            4026            4306     65.5867E-03     63.9352E-03
            4043            4306     65.5867E-03     63.9352E-03
            4044            4306     65.5867E-03     63.9352E-03
            4026            4307     70.4024E-03     69.3814E-03
            4044            4307     70.4024E-03     69.3814E-03
            4027            4307     70.4024E-03     69.3814E-03
            4045            4307     70.4024E-03     69.3814E-03
            4028            4308     75.5456E-03     75.0487E-03
            4027            4308     75.5456E-03     75.0487E-03
            4046            4308     75.5456E-03     75.0487E-03
            4045            4308     75.5456E-03     75.0487E-03
            4046            4309     81.5007E-03     81.2350E-03
            4029            4309     81.5007E-03     81.2350E-03
            4028            4309     81.5007E-03     81.2350E-03
            4047            4309     81.5007E-03     81.2350E-03
            4029            4310     86.3549E-03     86.2459E-03
            4030            4310     86.3549E-03     86.2459E-03
            4048            4310     86.3549E-03     86.2459E-03
            4047            4310     86.3549E-03     86.2459E-03
            4031            4311     34.5327E-03     60.2598E-03
            4049            4311     34.5327E-03     100.953E-03
            4032            4311     34.5327E-03     15.7354E-03
            4050            4311     34.5327E-03     28.7988E-03
            4032            4312     15.2412E-03     15.2674E-03
            4051            4312     15.2412E-03     15.2674E-03
            4050            4312     15.2412E-03     15.2674E-03
            4033            4312     15.2412E-03     15.2674E-03
            4033            4313     24.6673E-03     8.99804E-03
            4051            4313     24.6673E-03     8.99804E-03
            4052            4313     24.6673E-03     8.99804E-03
            4034            4313     24.6673E-03     8.99804E-03
            4035            4314     29.9888E-03     12.0125E-03
            4052            4314     29.9888E-03     12.0125E-03
            4053            4314     29.9888E-03     12.0125E-03
            4034            4314     29.9888E-03     12.0125E-03
            4053            4315     33.9852E-03     16.7882E-03
            4035            4315     33.9852E-03     16.7882E-03
            4054            4315     33.9852E-03     16.7882E-03
            4036            4315     33.9852E-03     16.7882E-03
            4037            4316     37.8948E-03     21.9225E-03
            4055            4316     37.8948E-03     21.9225E-03
            4036            4316     37.8948E-03     21.9225E-03
            4054            4316     37.8948E-03     21.9225E-03
            4056            4317     41.8898E-03     27.2712E-03
            4055            4317     41.8898E-03     27.2712E-03
            4038            4317     41.8898E-03     27.2712E-03
            4037            4317     41.8898E-03     27.2712E-03
            4038            4318     45.9845E-03     32.7713E-03
            4056            4318     45.9845E-03     32.7713E-03
            4057            4318     45.9845E-03     32.7713E-03
            4039            4318     45.9845E-03     32.7713E-03
            4058            4319     50.1217E-03     38.3473E-03
            4040            4319     50.1217E-03     38.3473E-03
            4057            4319     50.1217E-03     38.3473E-03
            4039            4319     50.1217E-03     38.3473E-03
            4041            4320     54.3001E-03     43.9706E-03
            4059            4320     54.3001E-03     43.9706E-03
            4040            4320     54.3001E-03     43.9706E-03
            4058            4320     54.3001E-03     43.9706E-03
            4042            4321     58.4661E-03     49.5995E-03
            4059            4321     58.4661E-03     49.5995E-03
            4041            4321     58.4661E-03     49.5995E-03
            4060            4321     58.4661E-03     49.5995E-03
            4060            4322     62.6820E-03     55.2472E-03
            4061            4322     62.6820E-03     55.2472E-03
            4043            4322     62.6820E-03     55.2472E-03
            4042            4322     62.6820E-03     55.2472E-03
            4044            4323     66.8374E-03     60.8785E-03
            4061            4323     66.8374E-03     60.8785E-03
            4062            4323     66.8374E-03     60.8785E-03
            4043            4323     66.8374E-03     60.8785E-03
            4062            4324     71.1375E-03     66.5559E-03
            4045            4324     71.1375E-03     66.5559E-03
            4044            4324     71.1375E-03     66.5559E-03
            4063            4324     71.1375E-03     66.5559E-03
            4045            4325     75.4041E-03     72.2347E-03
            4046            4325     75.4041E-03     72.2347E-03
            4064            4325     75.4041E-03     72.2347E-03
            4063            4325     75.4041E-03     72.2347E-03
            4064            4326     80.1933E-03     78.5411E-03
            4047            4326     80.1933E-03     78.5411E-03
            4046            4326     80.1933E-03     78.5411E-03
            4065            4326     80.1933E-03     78.5411E-03
            4048            4327     86.5744E-03     85.5113E-03
            4047            4327     86.5744E-03     85.5113E-03
            4066            4327     86.5744E-03     85.5113E-03
            4065            4327     86.5744E-03     85.5113E-03
            5085            5225     380.773E-06     406.420E-06
            5086            5225     380.773E-06     406.420E-06
            5067            5225     380.773E-06     406.420E-06
            5068            5225     380.773E-06     406.420E-06
            5069            5226     382.117E-06     406.036E-06
            5086            5226     382.117E-06     406.036E-06
            5087            5226     382.117E-06     406.036E-06
            5068            5226     382.117E-06     406.036E-06
            5069            5227     386.835E-06     407.068E-06
            5070            5227     386.835E-06     407.068E-06
            5087            5227     386.835E-06     407.068E-06
            5088            5227     386.835E-06     407.068E-06
            5070            5228     389.235E-06     414.953E-06
            5089            5228     389.235E-06     414.953E-06
            5071            5228     389.235E-06     414.953E-06
            5088            5228     389.235E-06     414.953E-06
            5090            5229     392.106E-06     423.583E-06
            5089            5229     392.106E-06     423.583E-06
            5071            5229     392.106E-06     423.583E-06
            5072            5229     392.106E-06     423.583E-06
            5072            5230     396.990E-06     432.831E-06
            5090            5230     396.990E-06     432.831E-06
            5091            5230     396.990E-06     432.831E-06
            5073            5230     396.990E-06     432.831E-06
            5091            5231     403.207E-06     443.226E-06
            5092            5231     403.207E-06     443.226E-06
            5073            5231     403.207E-06     443.226E-06
            5074            5231     403.207E-06     443.226E-06
            5075            5232     411.244E-06     454.623E-06
            5093            5232     411.244E-06     454.623E-06
            5074            5232     411.244E-06     454.623E-06
            5092            5232     411.244E-06     454.623E-06
            5093            5233     420.495E-06     466.834E-06
            5076            5233     420.495E-06     466.834E-06
            5075            5233     420.495E-06     466.834E-06
            5094            5233     420.495E-06     466.834E-06
            5077            5234     431.341E-06     480.134E-06
            5095            5234     431.341E-06     480.134E-06
            5094            5234     431.341E-06     480.134E-06
            5076            5234     431.341E-06     480.134E-06
            5077            5235     442.669E-06     493.513E-06
            5096            5235     442.669E-06     493.513E-06
            5095            5235     442.669E-06     493.513E-06
            5078            5235     442.669E-06     493.513E-06
            5097            5236     454.892E-06     507.606E-06
            5079            5236     454.892E-06     507.606E-06
            5078            5236     454.892E-06     507.606E-06
            5096            5236     454.892E-06     507.606E-06
            5080            5237     465.902E-06     520.540E-06
            5079            5237     465.902E-06     520.540E-06
            5097            5237     465.902E-06     520.540E-06
            5098            5237     465.902E-06     520.540E-06
            5080            5238     477.633E-06     535.462E-06
            5099            5238     477.633E-06     535.462E-06
            5081            5238     477.633E-06     535.462E-06
            5098            5238     477.633E-06     535.462E-06
            5081            5239     493.118E-06     553.844E-06
            5100            5239     493.118E-06     553.844E-06
            5082            5239     493.118E-06     553.844E-06
            5099            5239     493.118E-06     553.844E-06
            5101            5240     553.762E-06     615.667E-06
            5083            5240     553.762E-06     615.667E-06
            5100            5240     553.762E-06     615.667E-06
            5082            5240     553.762E-06     615.667E-06
            5101            5241     732.785E-06     786.443E-06
            5102            5241     732.785E-06     786.443E-06
            5083            5241     732.785E-06     786.443E-06
            5084            5241     732.785E-06     786.443E-06
            5086            5242     419.333E-06     396.855E-06
            5103            5242     419.333E-06     396.855E-06
            5085            5242     419.333E-06     396.855E-06
            5104            5242     419.333E-06     396.855E-06
            5104            5243     406.296E-06     410.057E-06
            5105            5243     406.296E-06     410.057E-06
            5086            5243     406.296E-06     410.057E-06
            5087            5243     406.296E-06     410.057E-06
            5106            5244     404.368E-06     416.815E-06
            5087            5244     404.368E-06     416.815E-06
            5088            5244     404.368E-06     416.815E-06
            5105            5244     404.368E-06     416.815E-06
            5088            5245     405.979E-06     422.518E-06
            5089            5245     405.979E-06     422.518E-06
            5106            5245     405.979E-06     422.518E-06
            5107            5245     405.979E-06     422.518E-06
            5107            5246     409.557E-06     429.186E-06
            5089            5246     409.557E-06     429.186E-06
            5108            5246     409.557E-06     429.186E-06
            5090            5246     409.557E-06     429.186E-06
            5091            5247     415.219E-06     436.746E-06
            5108            5247     415.219E-06     436.746E-06
            5090            5247     415.219E-06     436.746E-06
            5109            5247     415.219E-06     436.746E-06
            5091            5248     422.167E-06     445.925E-06
            5092            5248     422.167E-06     445.925E-06
            5110            5248     422.167E-06     445.925E-06
            5109            5248     422.167E-06     445.925E-06
            5111            5249     430.583E-06     456.083E-06
            5110            5249     430.583E-06     456.083E-06
            5093            5249     430.583E-06     456.083E-06
            5092            5249     430.583E-06     456.083E-06
            5094            5250     440.713E-06     467.754E-06
            5093            5250     440.713E-06     467.754E-06
            5112            5250     440.713E-06     467.754E-06
            5111            5250     440.713E-06     467.754E-06
            5112            5251     452.087E-06     480.504E-06
            5113            5251     452.087E-06     480.504E-06
            5095            5251     452.087E-06     480.504E-06
            5094            5251     452.087E-06     480.504E-06
            5113            5252     465.800E-06     495.071E-06
            5096            5252     465.800E-06     495.071E-06
            5114            5252     465.800E-06     495.071E-06
            5095            5252     465.800E-06     495.071E-06
            5114            5253     480.072E-06     510.812E-06
            5096            5253     480.072E-06     510.812E-06
            5115            5253     480.072E-06     510.812E-06
            5097            5253     480.072E-06     510.812E-06
            5115            5254     497.258E-06     527.988E-06
            5116            5254     497.258E-06     527.988E-06
            5098            5254     497.258E-06     527.988E-06
            5097            5254     497.258E-06     527.988E-06
            5117            5255     510.620E-06     544.498E-06
            5116            5255     510.620E-06     544.498E-06
            5099            5255     510.620E-06     544.498E-06
            5098            5255     510.620E-06     544.498E-06
            5099            5256     521.868E-06     556.249E-06
            5100            5256     521.868E-06     556.249E-06
            5118            5256     521.868E-06     556.249E-06
            5117            5256     521.868E-06     556.249E-06
            5100            5257     547.951E-06     573.507E-06
            5118            5257     547.951E-06     573.507E-06
            5101            5257     547.951E-06     573.507E-06
            5119            5257     547.951E-06     573.507E-06
            5102            5258     602.476E-06     608.714E-06
            5119            5258     602.476E-06     608.714E-06
            5101            5258     602.476E-06     608.714E-06
            5120            5258     602.476E-06     608.714E-06
            5103            5259     439.862E-06     395.764E-06
            5121            5259     439.862E-06     395.764E-06
            5104            5259     439.862E-06     395.764E-06
            5122            5259     439.862E-06     395.764E-06
            5104            5260     431.378E-06     414.556E-06
            5123            5260     431.378E-06     414.556E-06
            5105            5260     431.378E-06     414.556E-06
            5122            5260     431.378E-06     414.556E-06
            5123            5261     421.835E-06     427.475E-06
            5105            5261     421.835E-06     427.475E-06
            5106            5261     421.835E-06     427.475E-06
            5124            5261     421.835E-06     427.475E-06
            5125            5262     423.275E-06     430.809E-06
            5107            5262     423.275E-06     430.809E-06
            5106            5262     423.275E-06     430.809E-06
            5124            5262     423.275E-06     430.809E-06
            5108            5263     428.457E-06     435.010E-06
            5126            5263     428.457E-06     435.010E-06
            5107            5263     428.457E-06     435.010E-06
            5125            5263     428.457E-06     435.010E-06
            5108            5264     434.306E-06     441.408E-06
            5109            5264     434.306E-06     441.408E-06
            5127            5264     434.306E-06     441.408E-06
            5126            5264     434.306E-06     441.408E-06
            5128            5265     441.777E-06     448.661E-06
            5127            5265     441.777E-06     448.661E-06
            5110            5265     441.777E-06     448.661E-06
            5109            5265     441.777E-06     448.661E-06
            5110            5266     450.414E-06     457.606E-06
            5129            5266     450.414E-06     457.606E-06
            5111            5266     450.414E-06     457.606E-06
            5128            5266     450.414E-06     457.606E-06
            5111            5267     460.349E-06     467.658E-06
            5112            5267     460.349E-06     467.658E-06
            5130            5267     460.349E-06     467.658E-06
            5129            5267     460.349E-06     467.658E-06
            5112            5268     472.281E-06     479.588E-06
            5113            5268     472.281E-06     479.588E-06
            5131            5268     472.281E-06     479.588E-06
            5130            5268     472.281E-06     479.588E-06
            5113            5269     485.642E-06     493.326E-06
            5131            5269     485.642E-06     493.326E-06
            5114            5269     485.642E-06     493.326E-06
            5132            5269     485.642E-06     493.326E-06
            5133            5270     502.334E-06     509.361E-06
            5115            5270     502.334E-06     509.361E-06
            5132            5270     502.334E-06     509.361E-06
            5114            5270     502.334E-06     509.361E-06
            5115            5271     518.503E-06     526.904E-06
            5134            5271     518.503E-06     526.904E-06
            5116            5271     518.503E-06     526.904E-06
            5133            5271     518.503E-06     526.904E-06
            5135            5272     534.192E-06     540.864E-06
            5117            5272     534.192E-06     540.864E-06
            5134            5272     534.192E-06     540.864E-06
            5116            5272     534.192E-06     540.864E-06
            5118            5273     529.949E-06     542.752E-06
            5136            5273     529.949E-06     542.752E-06
            5135            5273     529.949E-06     542.752E-06
            5117            5273     529.949E-06     542.752E-06
            5136            5274     467.916E-06     492.372E-06
            5118            5274     467.916E-06     492.372E-06
            5137            5274     467.916E-06     492.372E-06
            5119            5274     467.916E-06     492.372E-06
            5119            5275     417.907E-06     432.588E-06
            5120            5275     417.907E-06     432.588E-06
            5137            5275     417.907E-06     432.588E-06
            5138            5275     417.907E-06     432.588E-06
            5139            5276     447.573E-06     427.544E-06
            5121            5276     447.573E-06     427.544E-06
            5122            5276     447.573E-06     427.544E-06
            5140            5276     447.573E-06     427.544E-06
            5122            5277     436.333E-06     436.524E-06
            5123            5277     436.333E-06     436.524E-06
            5140            5277     436.333E-06     436.524E-06
            5141            5277     436.333E-06     436.524E-06
            5142            5278     438.266E-06     436.810E-06
            5141            5278     438.266E-06     436.810E-06
            5124            5278     438.266E-06     436.810E-06
            5123            5278     438.266E-06     436.810E-06
            5125            5279     442.819E-06     438.590E-06
            5124            5279     442.819E-06     438.590E-06
            5143            5279     442.819E-06     438.590E-06
            5142            5279     442.819E-06     438.590E-06
            5144            5280     448.164E-06     442.065E-06
            5143            5280     448.164E-06     442.065E-06
            5126            5280     448.164E-06     442.065E-06
            5125            5280     448.164E-06     442.065E-06
            5127            5281     454.905E-06     446.445E-06
            5126            5281     454.905E-06     446.445E-06
            5145            5281     454.905E-06     446.445E-06
            5144            5281     454.905E-06     446.445E-06
            5146            5282     462.326E-06     452.412E-06
            5128            5282     462.326E-06     452.412E-06
            5145            5282     462.326E-06     452.412E-06
            5127            5282     462.326E-06     452.412E-06
            5147            5283     470.726E-06     459.215E-06
            5128            5283     470.726E-06     459.215E-06
            5146            5283     470.726E-06     459.215E-06
            5129            5283     470.726E-06     459.215E-06
            5129            5284     480.163E-06     467.309E-06
            5130            5284     480.163E-06     467.309E-06
            5147            5284     480.163E-06     467.309E-06
            5148            5284     480.163E-06     467.309E-06
            5130            5285     490.543E-06     476.428E-06
            5149            5285     490.543E-06     476.428E-06
            5131            5285     490.543E-06     476.428E-06
            5148            5285     490.543E-06     476.428E-06
            5150            5286     502.386E-06     487.040E-06
            5149            5286     502.386E-06     487.040E-06
            5131            5286     502.386E-06     487.040E-06
            5132            5286     502.386E-06     487.040E-06
            5151            5287     514.905E-06     498.533E-06
            5132            5287     514.905E-06     498.533E-06
            5133            5287     514.905E-06     498.533E-06
            5150            5287     514.905E-06     498.533E-06
            5151            5288     527.202E-06     509.346E-06
            5152            5288     527.202E-06     509.346E-06
            5134            5288     527.202E-06     509.346E-06
            5133            5288     527.202E-06     509.346E-06
            5135            5289     532.332E-06     513.944E-06
            5152            5289     532.332E-06     513.944E-06
            5134            5289     532.332E-06     513.944E-06
            5153            5289     532.332E-06     513.944E-06
            5135            5290     511.618E-06     495.393E-06
            5136            5290     511.618E-06     495.393E-06
            5154            5290     511.618E-06     495.393E-06
            5153            5290     511.618E-06     495.393E-06
            5137            5291     409.248E-06     410.428E-06
            5155            5291     409.248E-06     410.428E-06
            5154            5291     409.248E-06     410.428E-06
            5136            5291     409.248E-06     410.428E-06
            5155            5292     278.635E-06     274.808E-06
            5156            5292     278.635E-06     274.808E-06
            5138            5292     278.635E-06     274.808E-06
            5137            5292     278.635E-06     274.808E-06
            5157            5293     437.348E-06     464.318E-06
            5140            5293     437.348E-06     464.318E-06
            5158            5293     437.348E-06     464.318E-06
            5139            5293     437.348E-06     464.318E-06
            5141            5294     445.597E-06     453.118E-06
            5159            5294     445.597E-06     453.118E-06
            5140            5294     445.597E-06     453.118E-06
            5158            5294     445.597E-06     453.118E-06
            5159            5295     456.154E-06     446.259E-06
            5142            5295     456.154E-06     446.259E-06
            5141            5295     456.154E-06     446.259E-06
            5160            5295     456.154E-06     446.259E-06
            5142            5296     463.271E-06     447.282E-06
            5161            5296     463.271E-06     447.282E-06
            5160            5296     463.271E-06     447.282E-06
            5143            5296     463.271E-06     447.282E-06
            5143            5297     469.454E-06     449.731E-06
            5162            5297     469.454E-06     449.731E-06
            5161            5297     469.454E-06     449.731E-06
            5144            5297     469.454E-06     449.731E-06
            5144            5298     476.596E-06     452.875E-06
            5145            5298     476.596E-06     452.875E-06
            5162            5298     476.596E-06     452.875E-06
            5163            5298     476.596E-06     452.875E-06
            5145            5299     484.042E-06     457.078E-06
            5164            5299     484.042E-06     457.078E-06
            5146            5299     484.042E-06     457.078E-06
            5163            5299     484.042E-06     457.078E-06
            5164            5300     492.096E-06     461.922E-06
            5146            5300     492.096E-06     461.922E-06
            5165            5300     492.096E-06     461.922E-06
            5147            5300     492.096E-06     461.922E-06
            5166            5301     500.398E-06     467.360E-06
            5147            5301     500.398E-06     467.360E-06
            5148            5301     500.398E-06     467.360E-06
            5165            5301     500.398E-06     467.360E-06
            5149            5302     508.747E-06     473.062E-06
            5148            5302     508.747E-06     473.062E-06
            5167            5302     508.747E-06     473.062E-06
            5166            5302     508.747E-06     473.062E-06
            5168            5303     516.661E-06     478.196E-06
            5149            5303     516.661E-06     478.196E-06
            5150            5303     516.661E-06     478.196E-06
            5167            5303     516.661E-06     478.196E-06
            5151            5304     522.246E-06     481.703E-06
            5168            5304     522.246E-06     481.703E-06
            5150            5304     522.246E-06     481.703E-06
            5169            5304     522.246E-06     481.703E-06
            5170            5305     523.578E-06     479.506E-06
            5152            5305     523.578E-06     479.506E-06
            5151            5305     523.578E-06     479.506E-06
            5169            5305     523.578E-06     479.506E-06
            5152            5306     510.617E-06     465.296E-06
            5171            5306     510.617E-06     465.296E-06
            5170            5306     510.617E-06     465.296E-06
            5153            5306     510.617E-06     465.296E-06
            5172            5307     470.192E-06     420.545E-06
            5171            5307     470.192E-06     420.545E-06
            5153            5307     470.192E-06     420.545E-06
            5154            5307     470.192E-06     420.545E-06
            5154            5308     377.142E-06     324.731E-06
            5173            5308     377.142E-06     324.731E-06
            5172            5308     377.142E-06     324.731E-06
            5155            5308     377.142E-06     324.731E-06
            5156            5309     228.289E-06     244.394E-06
            5174            5309     228.289E-06     244.394E-06
            5173            5309     228.289E-06     244.394E-06
            5155            5309     228.289E-06     244.394E-06
            5865            5862     12.9341E-03     12.8364E-03
            5866            5862     12.9341E-03     12.8364E-03
            5848            5862     12.9341E-03     12.8364E-03
            5847            5862     12.9341E-03     12.8364E-03
            5848            5863     6.49603E-03     5.75577E-03
            5867            5863     6.49603E-03     5.75577E-03
            5866            5863     6.49603E-03     5.75577E-03
            5849            5863     6.49603E-03     5.75577E-03
            5849            5864     3.21619E-03     3.29773E-03
            5868            5864     3.21619E-03     3.29773E-03
            5850            5864     3.21619E-03     3.29773E-03
            5867            5864     3.21619E-03     3.29773E-03
            5868            5865     4.93294E-03     6.09743E-03
            5851            5865     4.93294E-03     6.09743E-03
            5850            5865     4.93294E-03     6.09743E-03
            5869            5865     4.93294E-03     6.09743E-03
            5870            5866     9.91932E-03     11.2466E-03
            5852            5866     9.91932E-03     11.2466E-03
            5851            5866     9.91932E-03     11.2466E-03
            5869            5866     9.91932E-03     11.2466E-03
            5870            5867     15.0270E-03     16.4049E-03
            5852            5867     15.0270E-03     16.4049E-03
            5853            5867     15.0270E-03     16.4049E-03
            5871            5867     15.0270E-03     16.4049E-03
            5853            5868     20.1318E-03     21.5305E-03
            5872            5868     20.1318E-03     21.5305E-03
            5871            5868     20.1318E-03     21.5305E-03
            5854            5868     20.1318E-03     21.5305E-03
            5854            5869     25.2339E-03     26.6304E-03
            5872            5869     25.2339E-03     26.6304E-03
            5855            5869     25.2339E-03     26.6304E-03
            5873            5869     25.2339E-03     26.6304E-03
            5874            5870     30.3401E-03     31.7120E-03
            5855            5870     30.3401E-03     31.7120E-03
            5873            5870     30.3401E-03     31.7120E-03
            5856            5870     30.3401E-03     31.7120E-03
            5874            5871     35.4542E-03     36.7929E-03
            5875            5871     35.4542E-03     36.7929E-03
            5857            5871     35.4542E-03     36.7929E-03
            5856            5871     35.4542E-03     36.7929E-03
            5876            5872     40.6054E-03     41.8803E-03
            5875            5872     40.6054E-03     41.8803E-03
            5857            5872     40.6054E-03     41.8803E-03
            5858            5872     40.6054E-03     41.8803E-03
            5858            5873     45.7955E-03     47.0143E-03
            5877            5873     45.7955E-03     47.0143E-03
            5876            5873     45.7955E-03     47.0143E-03
            5859            5873     45.7955E-03     47.0143E-03
            5878            5874     51.1042E-03     52.2273E-03
            5860            5874     51.1042E-03     52.2273E-03
            5877            5874     51.1042E-03     52.2273E-03
            5859            5874     51.1042E-03     52.2273E-03
            5861            5875     56.5363E-03     57.6184E-03
            5878            5875     56.5363E-03     57.6184E-03
            5879            5875     56.5363E-03     57.6184E-03
            5860            5875     56.5363E-03     57.6184E-03
            5879            5876     62.3315E-03     63.3685E-03
            5880            5876     62.3315E-03     63.3685E-03
            5861            5876     62.3315E-03     63.3685E-03
            5862            5876     62.3315E-03     63.3685E-03
            5880            5877     68.5237E-03     69.7284E-03
            5862            5877     68.5237E-03     69.7284E-03
            5863            5877     68.5237E-03     69.7284E-03
            5881            5877     68.5237E-03     69.7284E-03
            5863            5878     76.6974E-03     78.8642E-03
            5881            5878     76.6974E-03     78.8642E-03
            5864            5878     76.6974E-03     78.8642E-03
            5882            5878     76.6974E-03     78.8642E-03
            5865            5879     14.7944E-03     14.0441E-03
            5883            5879     14.7944E-03     14.0441E-03
            5866            5879     14.7944E-03     14.0441E-03
            5884            5879     14.7944E-03     14.0441E-03
            5884            5880     7.40838E-03     6.47062E-03
            5866            5880     7.40838E-03     6.47062E-03
            5867            5880     7.40838E-03     6.47062E-03
            5885            5880     7.40838E-03     6.47062E-03
            5868            5881     3.23612E-03     3.18370E-03
            5867            5881     3.23612E-03     3.18370E-03
            5885            5881     3.23612E-03     3.18370E-03
            5886            5881     3.23612E-03     3.18370E-03
            5868            5882     4.68863E-03     5.88802E-03
            5886            5882     4.68863E-03     5.88802E-03
            5869            5882     4.68863E-03     5.88802E-03
            5887            5882     4.68863E-03     5.88802E-03
            5888            5883     9.50845E-03     11.0058E-03
            5869            5883     9.50845E-03     11.0058E-03
            5887            5883     9.50845E-03     11.0058E-03
            5870            5883     9.50845E-03     11.0058E-03
            5888            5884     14.4034E-03     16.0077E-03
            5870            5884     14.4034E-03     16.0077E-03
            5871            5884     14.4034E-03     16.0077E-03
            5889            5884     14.4034E-03     16.0077E-03
            5872            5885     19.2940E-03     20.9372E-03
            5889            5885     19.2940E-03     20.9372E-03
            5890            5885     19.2940E-03     20.9372E-03
            5871            5885     19.2940E-03     20.9372E-03
            5891            5886     24.1550E-03     25.8023E-03
            5873            5886     24.1550E-03     25.8023E-03
            5872            5886     24.1550E-03     25.8023E-03
            5890            5886     24.1550E-03     25.8023E-03
            5873            5887     29.0210E-03     30.6419E-03
            5874            5887     29.0210E-03     30.6419E-03
            5891            5887     29.0210E-03     30.6419E-03
            5892            5887     29.0210E-03     30.6419E-03
            5893            5888     33.9149E-03     35.4843E-03
            5874            5888     33.9149E-03     35.4843E-03
            5875            5888     33.9149E-03     35.4843E-03
            5892            5888     33.9149E-03     35.4843E-03
            5876            5889     38.8609E-03     40.3575E-03
            5875            5889     38.8609E-03     40.3575E-03
            5894            5889     38.8609E-03     40.3575E-03
            5893            5889     38.8609E-03     40.3575E-03
            5895            5890     43.9403E-03     45.3450E-03
            5876            5890     43.9403E-03     45.3450E-03
            5894            5890     43.9403E-03     45.3450E-03
            5877            5890     43.9403E-03     45.3450E-03
            5878            5891     49.1917E-03     50.5034E-03
            5877            5891     49.1917E-03     50.5034E-03
            5896            5891     49.1917E-03     50.5034E-03
            5895            5891     49.1917E-03     50.5034E-03
            5879            5892     54.8756E-03     56.1005E-03
            5897            5892     54.8756E-03     56.1005E-03
            5878            5892     54.8756E-03     56.1005E-03
            5896            5892     54.8756E-03     56.1005E-03
            5879            5893     61.0786E-03     62.2994E-03
            5898            5893     61.0786E-03     62.2994E-03
            5897            5893     61.0786E-03     62.2994E-03
            5880            5893     61.0786E-03     62.2994E-03
            5881            5894     68.8902E-03     70.1899E-03
            5899            5894     68.8902E-03     70.1899E-03
            5880            5894     68.8902E-03     70.1899E-03
            5898            5894     68.8902E-03     70.1899E-03
            5900            5895     79.6425E-03     80.4713E-03
            5899            5895     79.6425E-03     80.4713E-03
            5882            5895     79.6425E-03     80.4713E-03
            5881            5895     79.6425E-03     80.4713E-03
            5902            5896     14.4463E-03     12.4453E-03
            5883            5896     14.4463E-03     12.4453E-03
            5901            5896     14.4463E-03     12.4453E-03
            5884            5896     14.4463E-03     12.4453E-03
            5903            5897     8.77177E-03     7.09186E-03
            5884            5897     8.77177E-03     7.09186E-03
            5902            5897     8.77177E-03     7.09186E-03
            5885            5897     8.77177E-03     7.09186E-03
            5903            5898     4.63679E-03     4.07455E-03
            5885            5898     4.63679E-03     4.07455E-03
            5904            5898     4.63679E-03     4.07455E-03
            5886            5898     4.63679E-03     4.07455E-03
            5886            5899     5.54921E-03     6.33791E-03
            5904            5899     5.54921E-03     6.33791E-03
            5905            5899     5.54921E-03     6.33791E-03
            5887            5899     5.54921E-03     6.33791E-03
            5905            5900     10.0026E-03     11.2638E-03
            5888            5900     10.0026E-03     11.2638E-03
            5887            5900     10.0026E-03     11.2638E-03
            5906            5900     10.0026E-03     11.2638E-03
            5888            5901     14.9186E-03     16.3270E-03
            5906            5901     14.9186E-03     16.3270E-03
            5889            5901     14.9186E-03     16.3270E-03
            5907            5901     14.9186E-03     16.3270E-03
            5907            5902     19.9079E-03     21.3745E-03
            5890            5902     19.9079E-03     21.3745E-03
            5908            5902     19.9079E-03     21.3745E-03
            5889            5902     19.9079E-03     21.3745E-03
            5908            5903     24.9129E-03     26.4075E-03
            5890            5903     24.9129E-03     26.4075E-03
            5891            5903     24.9129E-03     26.4075E-03
            5909            5903     24.9129E-03     26.4075E-03
            5909            5904     29.9420E-03     31.4432E-03
            5892            5904     29.9420E-03     31.4432E-03
            5910            5904     29.9420E-03     31.4432E-03
            5891            5904     29.9420E-03     31.4432E-03
            5893            5905     35.0068E-03     36.5105E-03
            5910            5905     35.0068E-03     36.5105E-03
            5911            5905     35.0068E-03     36.5105E-03
            5892            5905     35.0068E-03     36.5105E-03
            5911            5906     40.1589E-03     41.6472E-03
            5893            5906     40.1589E-03     41.6472E-03
            5912            5906     40.1589E-03     41.6472E-03
            5894            5906     40.1589E-03     41.6472E-03
            5912            5907     45.4278E-03     46.9158E-03
            5913            5907     45.4278E-03     46.9158E-03
            5894            5907     45.4278E-03     46.9158E-03
            5895            5907     45.4278E-03     46.9158E-03
            5913            5908     50.9559E-03     52.4139E-03
            5896            5908     50.9559E-03     52.4139E-03
            5895            5908     50.9559E-03     52.4139E-03
            5914            5908     50.9559E-03     52.4139E-03
            5914            5909     56.8673E-03     58.3238E-03
            5915            5909     56.8673E-03     58.3238E-03
            5897            5909     56.8673E-03     58.3238E-03
            5896            5909     56.8673E-03     58.3238E-03
            5898            5910     63.4911E-03     64.8725E-03
            5897            5910     63.4911E-03     64.8725E-03
            5915            5910     63.4911E-03     64.8725E-03
            5916            5910     63.4911E-03     64.8725E-03
            5917            5911     71.8241E-03     72.7218E-03
            5916            5911     71.8241E-03     72.7218E-03
            5898            5911     71.8241E-03     72.7218E-03
            5899            5911     71.8241E-03     72.7218E-03
            5918            5912     80.1809E-03     80.3629E-03
            5917            5912     80.1809E-03     80.3629E-03
            5900            5912     80.1809E-03     80.3629E-03
            5899            5912     80.1809E-03     80.3629E-03
            5901            5913     13.0531E-03     11.2936E-03
            5919            5913     13.0531E-03     11.2936E-03
            5920            5913     13.0531E-03     11.2936E-03
            5902            5913     13.0531E-03     11.2936E-03
            5902            5914     8.81992E-03     7.07313E-03
            5903            5914     8.81992E-03     7.07313E-03
            5920            5914     8.81992E-03     7.07313E-03
            5921            5914     8.81992E-03     7.07313E-03
            5904            5915     6.03407E-03     5.22725E-03
            5903            5915     6.03407E-03     5.22725E-03
            5921            5915     6.03407E-03     5.22725E-03
            5922            5915     6.03407E-03     5.22725E-03
            5923            5916     6.88181E-03     7.35532E-03
            5922            5916     6.88181E-03     7.35532E-03
            5904            5916     6.88181E-03     7.35532E-03
            5905            5916     6.88181E-03     7.35532E-03
            5906            5917     10.7982E-03     11.8792E-03
            5905            5917     10.7982E-03     11.8792E-03
            5923            5917     10.7982E-03     11.8792E-03
            5924            5917     10.7982E-03     11.8792E-03
            5907            5918     15.6233E-03     16.8649E-03
            5906            5918     15.6233E-03     16.8649E-03
            5924            5918     15.6233E-03     16.8649E-03
            5925            5918     15.6233E-03     16.8649E-03
            5926            5919     20.6196E-03     21.9415E-03
            5925            5919     20.6196E-03     21.9415E-03
            5907            5919     20.6196E-03     21.9415E-03
            5908            5919     20.6196E-03     21.9415E-03
            5927            5920     25.7069E-03     27.0692E-03
            5908            5920     25.7069E-03     27.0692E-03
            5926            5920     25.7069E-03     27.0692E-03
            5909            5920     25.7069E-03     27.0692E-03
            5909            5921     30.8416E-03     32.2437E-03
            5927            5921     30.8416E-03     32.2437E-03
            5928            5921     30.8416E-03     32.2437E-03
            5910            5921     30.8416E-03     32.2437E-03
            5911            5922     36.0458E-03     37.4774E-03
            5910            5922     36.0458E-03     37.4774E-03
            5928            5922     36.0458E-03     37.4774E-03
            5929            5922     36.0458E-03     37.4774E-03
            5912            5923     41.3320E-03     42.8092E-03
            5930            5923     41.3320E-03     42.8092E-03
            5929            5923     41.3320E-03     42.8092E-03
            5911            5923     41.3320E-03     42.8092E-03
            5912            5924     46.7632E-03     48.2678E-03
            5930            5924     46.7632E-03     48.2678E-03
            5931            5924     46.7632E-03     48.2678E-03
            5913            5924     46.7632E-03     48.2678E-03
            5914            5925     52.4275E-03     53.9581E-03
            5932            5925     52.4275E-03     53.9581E-03
            5913            5925     52.4275E-03     53.9581E-03
            5931            5925     52.4275E-03     53.9581E-03
            5914            5926     58.4046E-03     59.9264E-03
            5932            5926     58.4046E-03     59.9264E-03
            5933            5926     58.4046E-03     59.9264E-03
            5915            5926     58.4046E-03     59.9264E-03
            5934            5927     65.1379E-03     66.4211E-03
            5916            5927     65.1379E-03     66.4211E-03
            5933            5927     65.1379E-03     66.4211E-03
            5915            5927     65.1379E-03     66.4211E-03
            5917            5928     72.0875E-03     73.1812E-03
            5934            5928     72.0875E-03     73.1812E-03
            5935            5928     72.0875E-03     73.1812E-03
            5916            5928     72.0875E-03     73.1812E-03
            5936            5929     78.2714E-03     79.4757E-03
            5918            5929     78.2714E-03     79.4757E-03
            5917            5929     78.2714E-03     79.4757E-03
            5935            5929     78.2714E-03     79.4757E-03
            5938            5930     12.4598E-03     10.6544E-03
            5920            5930     12.4598E-03     10.6544E-03
            5937            5930     12.4598E-03     10.6544E-03
            5919            5930     12.4598E-03     10.6544E-03
            5939            5931     8.74401E-03     7.25168E-03
            5921            5931     8.74401E-03     7.25168E-03
            5938            5931     8.74401E-03     7.25168E-03
            5920            5931     8.74401E-03     7.25168E-03
            5921            5932     6.82339E-03     6.18251E-03
            5940            5932     6.82339E-03     6.18251E-03
            5922            5932     6.82339E-03     6.18251E-03
            5939            5932     6.82339E-03     6.18251E-03
            5940            5933     8.05688E-03     8.45541E-03
            5922            5933     8.05688E-03     8.45541E-03
            5923            5933     8.05688E-03     8.45541E-03
            5941            5933     8.05688E-03     8.45541E-03
            5923            5934     11.7236E-03     12.6607E-03
            5941            5934     11.7236E-03     12.6607E-03
            5924            5934     11.7236E-03     12.6607E-03
            5942            5934     11.7236E-03     12.6607E-03
            5942            5935     16.3510E-03     17.4705E-03
            5925            5935     16.3510E-03     17.4705E-03
            5943            5935     16.3510E-03     17.4705E-03
            5924            5935     16.3510E-03     17.4705E-03
            5944            5936     21.3218E-03     22.5079E-03
            5926            5936     21.3218E-03     22.5079E-03
            5943            5936     21.3218E-03     22.5079E-03
            5925            5936     21.3218E-03     22.5079E-03
            5927            5937     26.4204E-03     27.6596E-03
            5944            5937     26.4204E-03     27.6596E-03
            5945            5937     26.4204E-03     27.6596E-03
            5926            5937     26.4204E-03     27.6596E-03
            5927            5938     31.6163E-03     32.9011E-03
            5945            5938     31.6163E-03     32.9011E-03
            5928            5938     31.6163E-03     32.9011E-03
            5946            5938     31.6163E-03     32.9011E-03
            5947            5939     36.8861E-03     38.2339E-03
            5929            5939     36.8861E-03     38.2339E-03
            5946            5939     36.8861E-03     38.2339E-03
            5928            5939     36.8861E-03     38.2339E-03
            5947            5940     42.2488E-03     43.6580E-03
            5929            5940     42.2488E-03     43.6580E-03
            5930            5940     42.2488E-03     43.6580E-03
            5948            5940     42.2488E-03     43.6580E-03
            5948            5941     47.7408E-03     49.2153E-03
            5931            5941     47.7408E-03     49.2153E-03
            5949            5941     47.7408E-03     49.2153E-03
            5930            5941     47.7408E-03     49.2153E-03
            5950            5942     53.3670E-03     54.8969E-03
            5932            5942     53.3670E-03     54.8969E-03
            5949            5942     53.3670E-03     54.8969E-03
            5931            5942     53.3670E-03     54.8969E-03
            5951            5943     59.2922E-03     60.7564E-03
            5933            5943     59.2922E-03     60.7564E-03
            5950            5943     59.2922E-03     60.7564E-03
            5932            5943     59.2922E-03     60.7564E-03
            5951            5944     65.2963E-03     66.7072E-03
            5933            5944     65.2963E-03     66.7072E-03
            5952            5944     65.2963E-03     66.7072E-03
            5934            5944     65.2963E-03     66.7072E-03
            5935            5945     71.1115E-03     72.4061E-03
            5952            5945     71.1115E-03     72.4061E-03
            5934            5945     71.1115E-03     72.4061E-03
            5953            5945     71.1115E-03     72.4061E-03
            5936            5946     76.5886E-03     77.3954E-03
            5935            5946     76.5886E-03     77.3954E-03
            5953            5946     76.5886E-03     77.3954E-03
            5954            5946     76.5886E-03     77.3954E-03
            5956            5947     12.1738E-03     10.4876E-03
            5938            5947     12.1738E-03     10.4876E-03
            5937            5947     12.1738E-03     10.4876E-03
            5955            5947     12.1738E-03     10.4876E-03
            5939            5948     9.15241E-03     7.84367E-03
            5957            5948     9.15241E-03     7.84367E-03
            5938            5948     9.15241E-03     7.84367E-03
            5956            5948     9.15241E-03     7.84367E-03
            5957            5949     7.82484E-03     7.40251E-03
            5958            5949     7.82484E-03     7.40251E-03
            5939            5949     7.82484E-03     7.40251E-03
            5940            5949     7.82484E-03     7.40251E-03
            5958            5950     9.14007E-03     9.58633E-03
            5959            5950     9.14007E-03     9.58633E-03
            5940            5950     9.14007E-03     9.58633E-03
            5941            5950     9.14007E-03     9.58633E-03
            5960            5951     12.6248E-03     13.4808E-03
            5959            5951     12.6248E-03     13.4808E-03
            5941            5951     12.6248E-03     13.4808E-03
            5942            5951     12.6248E-03     13.4808E-03
            5960            5952     17.0801E-03     18.0771E-03
            5961            5952     17.0801E-03     18.0771E-03
            5943            5952     17.0801E-03     18.0771E-03
            5942            5952     17.0801E-03     18.0771E-03
            5962            5953     21.9419E-03     22.9964E-03
            5943            5953     21.9419E-03     22.9964E-03
            5961            5953     21.9419E-03     22.9964E-03
            5944            5953     21.9419E-03     22.9964E-03
            5962            5954     27.0082E-03     28.1025E-03
            5945            5954     27.0082E-03     28.1025E-03
            5963            5954     27.0082E-03     28.1025E-03
            5944            5954     27.0082E-03     28.1025E-03
            5963            5955     32.1859E-03     33.3352E-03
            5946            5955     32.1859E-03     33.3352E-03
            5964            5955     32.1859E-03     33.3352E-03
            5945            5955     32.1859E-03     33.3352E-03
            5964            5956     37.4548E-03     38.6696E-03
            5946            5956     37.4548E-03     38.6696E-03
            5947            5956     37.4548E-03     38.6696E-03
            5965            5956     37.4548E-03     38.6696E-03
            5947            5957     42.8082E-03     44.1048E-03
            5948            5957     42.8082E-03     44.1048E-03
            5966            5957     42.8082E-03     44.1048E-03
            5965            5957     42.8082E-03     44.1048E-03
            5949            5958     48.2318E-03     49.6181E-03
            5966            5958     48.2318E-03     49.6181E-03
            5967            5958     48.2318E-03     49.6181E-03
            5948            5958     48.2318E-03     49.6181E-03
            5968            5959     53.7612E-03     55.1993E-03
            5949            5959     53.7612E-03     55.1993E-03
            5950            5959     53.7612E-03     55.1993E-03
            5967            5959     53.7612E-03     55.1993E-03
            5969            5960     59.2854E-03     60.7666E-03
            5951            5960     59.2854E-03     60.7666E-03
            5968            5960     59.2854E-03     60.7666E-03
            5950            5960     59.2854E-03     60.7666E-03
            5969            5961     64.7006E-03     66.1156E-03
            5970            5961     64.7006E-03     66.1156E-03
            5952            5961     64.7006E-03     66.1156E-03
            5951            5961     64.7006E-03     66.1156E-03
            5971            5962     69.8553E-03     71.0278E-03
            5952            5962     69.8553E-03     71.0278E-03
            5953            5962     69.8553E-03     71.0278E-03
            5970            5962     69.8553E-03     71.0278E-03
            5953            5963     74.5378E-03     75.4705E-03
            5972            5963     74.5378E-03     75.4705E-03
            5971            5963     74.5378E-03     75.4705E-03
            5954            5963     74.5378E-03     75.4705E-03
            5973            5964     12.3282E-03     10.7797E-03
            5955            5964     12.3282E-03     10.7797E-03
            5974            5964     12.3282E-03     10.7797E-03
            5956            5964     12.3282E-03     10.7797E-03
            5974            5965     9.83428E-03     8.82392E-03
            5956            5965     9.83428E-03     8.82392E-03
            5975            5965     9.83428E-03     8.82392E-03
            5957            5965     9.83428E-03     8.82392E-03
            5957            5966     8.94642E-03     8.73632E-03
            5975            5966     8.94642E-03     8.73632E-03
            5958            5966     8.94642E-03     8.73632E-03
            5976            5966     8.94642E-03     8.73632E-03
            5977            5967     10.3148E-03     10.7892E-03
            5959            5967     10.3148E-03     10.7892E-03
            5958            5967     10.3148E-03     10.7892E-03
            5976            5967     10.3148E-03     10.7892E-03
            5959            5968     13.5265E-03     14.3204E-03
            5960            5968     13.5265E-03     14.3204E-03
            5977            5968     13.5265E-03     14.3204E-03
            5978            5968     13.5265E-03     14.3204E-03
            5979            5969     17.7813E-03     18.6509E-03
            5960            5969     17.7813E-03     18.6509E-03
            5978            5969     17.7813E-03     18.6509E-03
            5961            5969     17.7813E-03     18.6509E-03
            5961            5970     22.4965E-03     23.3946E-03
            5980            5970     22.4965E-03     23.3946E-03
            5979            5970     22.4965E-03     23.3946E-03
            5962            5970     22.4965E-03     23.3946E-03
            5962            5971     27.4454E-03     28.3739E-03
            5980            5971     27.4454E-03     28.3739E-03
            5981            5971     27.4454E-03     28.3739E-03
            5963            5971     27.4454E-03     28.3739E-03
            5981            5972     32.5349E-03     33.5084E-03
            5982            5972     32.5349E-03     33.5084E-03
            5964            5972     32.5349E-03     33.5084E-03
            5963            5972     32.5349E-03     33.5084E-03
            5964            5973     37.7162E-03     38.7548E-03
            5982            5973     37.7162E-03     38.7548E-03
            5983            5973     37.7162E-03     38.7548E-03
            5965            5973     37.7162E-03     38.7548E-03
            5965            5974     42.9587E-03     44.0844E-03
            5966            5974     42.9587E-03     44.0844E-03
            5984            5974     42.9587E-03     44.0844E-03
            5983            5974     42.9587E-03     44.0844E-03
            5967            5975     48.2473E-03     49.4666E-03
            5985            5975     48.2473E-03     49.4666E-03
            5966            5975     48.2473E-03     49.4666E-03
            5984            5975     48.2473E-03     49.4666E-03
            5967            5976     53.5246E-03     54.8442E-03
            5986            5976     53.5246E-03     54.8442E-03
            5985            5976     53.5246E-03     54.8442E-03
            5968            5976     53.5246E-03     54.8442E-03
            5986            5977     58.6988E-03     60.0886E-03
            5968            5977     58.6988E-03     60.0886E-03
            5969            5977     58.6988E-03     60.0886E-03
            5987            5977     58.6988E-03     60.0886E-03
            5987            5978     63.6564E-03     65.0111E-03
            5988            5978     63.6564E-03     65.0111E-03
            5969            5978     63.6564E-03     65.0111E-03
            5970            5978     63.6564E-03     65.0111E-03
            5989            5979     68.2306E-03     69.4219E-03
            5988            5979     68.2306E-03     69.4219E-03
            5971            5979     68.2306E-03     69.4219E-03
            5970            5979     68.2306E-03     69.4219E-03
            5972            5980     72.4537E-03     73.2987E-03
            5990            5980     72.4537E-03     73.2987E-03
            5989            5980     72.4537E-03     73.2987E-03
            5971            5980     72.4537E-03     73.2987E-03
            5974            5981     12.7914E-03     11.4895E-03
            5973            5981     12.7914E-03     11.4895E-03
            5992            5981     12.7914E-03     11.4895E-03
            5991            5981     12.7914E-03     11.4895E-03
            5993            5982     10.7830E-03     10.0966E-03
            5975            5982     10.7830E-03     10.0966E-03
            5974            5982     10.7830E-03     10.0966E-03
            5992            5982     10.7830E-03     10.0966E-03
            5993            5983     10.1614E-03     10.2060E-03
            5994            5983     10.1614E-03     10.2060E-03
            5976            5983     10.1614E-03     10.2060E-03
            5975            5983     10.1614E-03     10.2060E-03
            5977            5984     11.4512E-03     12.0121E-03
            5994            5984     11.4512E-03     12.0121E-03
            5995            5984     11.4512E-03     12.0121E-03
            5976            5984     11.4512E-03     12.0121E-03
            5977            5985     14.4958E-03     15.1951E-03
            5978            5985     14.4958E-03     15.1951E-03
            5995            5985     14.4958E-03     15.1951E-03
            5996            5985     14.4958E-03     15.1951E-03
            5978            5986     18.5060E-03     19.2256E-03
            5996            5986     18.5060E-03     19.2256E-03
            5997            5986     18.5060E-03     19.2256E-03
            5979            5986     18.5060E-03     19.2256E-03
            5979            5987     23.0082E-03     23.7280E-03
            5980            5987     23.0082E-03     23.7280E-03
            5998            5987     23.0082E-03     23.7280E-03
            5997            5987     23.0082E-03     23.7280E-03
            5998            5988     27.7683E-03     28.5021E-03
            5981            5988     27.7683E-03     28.5021E-03
            5999            5988     27.7683E-03     28.5021E-03
            5980            5988     27.7683E-03     28.5021E-03
            6000            5989     32.6778E-03     33.4423E-03
            5999            5989     32.6778E-03     33.4423E-03
            5981            5989     32.6778E-03     33.4423E-03
            5982            5989     32.6778E-03     33.4423E-03
            5983            5990     37.6763E-03     38.4946E-03
            5982            5990     37.6763E-03     38.4946E-03
            6001            5990     37.6763E-03     38.4946E-03
            6000            5990     37.6763E-03     38.4946E-03
            6001            5991     42.7261E-03     43.6127E-03
            5983            5991     42.7261E-03     43.6127E-03
            6002            5991     42.7261E-03     43.6127E-03
            5984            5991     42.7261E-03     43.6127E-03
            5985            5992     47.7776E-03     48.7615E-03
            5984            5992     47.7776E-03     48.7615E-03
            6002            5992     47.7776E-03     48.7615E-03
            6003            5992     47.7776E-03     48.7615E-03
            6003            5993     52.7603E-03     53.8617E-03
            5985            5993     52.7603E-03     53.8617E-03
            5986            5993     52.7603E-03     53.8617E-03
            6004            5993     52.7603E-03     53.8617E-03
            5987            5994     57.6273E-03     58.8132E-03
            6004            5994     57.6273E-03     58.8132E-03
            5986            5994     57.6273E-03     58.8132E-03
            6005            5994     57.6273E-03     58.8132E-03
            6005            5995     62.1791E-03     63.4444E-03
            5988            5995     62.1791E-03     63.4444E-03
            6006            5995     62.1791E-03     63.4444E-03
            5987            5995     62.1791E-03     63.4444E-03
            6006            5996     66.3566E-03     67.5239E-03
            5988            5996     66.3566E-03     67.5239E-03
            5989            5996     66.3566E-03     67.5239E-03
            6007            5996     66.3566E-03     67.5239E-03
            6008            5997     70.1493E-03     70.9119E-03
            6007            5997     70.1493E-03     70.9119E-03
            5989            5997     70.1493E-03     70.9119E-03
            5990            5997     70.1493E-03     70.9119E-03
            6010            5998     13.4914E-03     12.5063E-03
            5991            5998     13.4914E-03     12.5063E-03
            5992            5998     13.4914E-03     12.5063E-03
            6009            5998     13.4914E-03     12.5063E-03
            6011            5999     11.8710E-03     11.5896E-03
            6010            5999     11.8710E-03     11.5896E-03
            5992            5999     11.8710E-03     11.5896E-03
            5993            5999     11.8710E-03     11.5896E-03
            6012            6000     11.2937E-03     11.7300E-03
            6011            6000     11.2937E-03     11.7300E-03
            5993            6000     11.2937E-03     11.7300E-03
            5994            6000     11.2937E-03     11.7300E-03
            6013            6001     12.6775E-03     13.2815E-03
            6012            6001     12.6775E-03     13.2815E-03
            5994            6001     12.6775E-03     13.2815E-03
            5995            6001     12.6775E-03     13.2815E-03
            5995            6002     15.5799E-03     16.1551E-03
            6014            6002     15.5799E-03     16.1551E-03
            5996            6002     15.5799E-03     16.1551E-03
            6013            6002     15.5799E-03     16.1551E-03
            5996            6003     19.3327E-03     19.8760E-03
            6014            6003     19.3327E-03     19.8760E-03
            6015            6003     19.3327E-03     19.8760E-03
            5997            6003     19.3327E-03     19.8760E-03
            5998            6004     23.5535E-03     24.0802E-03
            6016            6004     23.5535E-03     24.0802E-03
            5997            6004     23.5535E-03     24.0802E-03
            6015            6004     23.5535E-03     24.0802E-03
            6017            6005     28.0364E-03     28.5617E-03
            6016            6005     28.0364E-03     28.5617E-03
            5998            6005     28.0364E-03     28.5617E-03
            5999            6005     28.0364E-03     28.5617E-03
            6017            6006     32.6717E-03     33.2104E-03
            5999            6006     32.6717E-03     33.2104E-03
            6000            6006     32.6717E-03     33.2104E-03
            6018            6006     32.6717E-03     33.2104E-03
            6019            6007     37.3959E-03     37.9532E-03
            6000            6007     37.3959E-03     37.9532E-03
            6018            6007     37.3959E-03     37.9532E-03
            6001            6007     37.3959E-03     37.9532E-03
            6020            6008     42.1499E-03     42.7506E-03
            6019            6008     42.1499E-03     42.7506E-03
            6002            6008     42.1499E-03     42.7506E-03
            6001            6008     42.1499E-03     42.7506E-03
            6020            6009     46.8859E-03     47.5431E-03
            6002            6009     46.8859E-03     47.5431E-03
            6021            6009     46.8859E-03     47.5431E-03
            6003            6009     46.8859E-03     47.5431E-03
            6021            6010     51.5457E-03     52.2911E-03
            6022            6010     51.5457E-03     52.2911E-03
            6003            6010     51.5457E-03     52.2911E-03
            6004            6010     51.5457E-03     52.2911E-03
            6004            6011     56.0132E-03     56.8988E-03
            6022            6011     56.0132E-03     56.8988E-03
            6023            6011     56.0132E-03     56.8988E-03
            6005            6011     56.0132E-03     56.8988E-03
            6024            6012     60.3067E-03     61.2575E-03
            6023            6012     60.3067E-03     61.2575E-03
            6006            6012     60.3067E-03     61.2575E-03
            6005            6012     60.3067E-03     61.2575E-03
            6024            6013     64.1382E-03     65.1302E-03
            6025            6013     64.1382E-03     65.1302E-03
            6006            6013     64.1382E-03     65.1302E-03
            6007            6013     64.1382E-03     65.1302E-03
            6025            6014     67.4732E-03     68.3426E-03
            6008            6014     67.4732E-03     68.3426E-03
            6026            6014     67.4732E-03     68.3426E-03
            6007            6014     67.4732E-03     68.3426E-03
            6009            6015     14.3699E-03     13.9420E-03
            6027            6015     14.3699E-03     13.9420E-03
            6028            6015     14.3699E-03     13.9420E-03
            6010            6015     14.3699E-03     13.9420E-03
            6010            6016     12.5073E-03     13.2030E-03
            6029            6016     12.5073E-03     13.2030E-03
            6028            6016     12.5073E-03     13.2030E-03
            6011            6016     12.5073E-03     13.2030E-03
            6029            6017     12.4575E-03     13.2010E-03
            6030            6017     12.4575E-03     13.2010E-03
            6012            6017     12.4575E-03     13.2010E-03
            6011            6017     12.4575E-03     13.2010E-03
            6012            6018     14.1581E-03     14.6651E-03
            6030            6018     14.1581E-03     14.6651E-03
            6031            6018     14.1581E-03     14.6651E-03
            6013            6018     14.1581E-03     14.6651E-03
            6032            6019     16.9111E-03     17.3194E-03
            6031            6019     16.9111E-03     17.3194E-03
            6014            6019     16.9111E-03     17.3194E-03
            6013            6019     16.9111E-03     17.3194E-03
            6014            6020     20.3672E-03     20.7283E-03
            6032            6020     20.3672E-03     20.7283E-03
            6033            6020     20.3672E-03     20.7283E-03
            6015            6020     20.3672E-03     20.7283E-03
            6015            6021     24.2363E-03     24.5788E-03
            6033            6021     24.2363E-03     24.5788E-03
            6034            6021     24.2363E-03     24.5788E-03
            6016            6021     24.2363E-03     24.5788E-03
            6017            6022     28.3552E-03     28.6877E-03
            6016            6022     28.3552E-03     28.6877E-03
            6035            6022     28.3552E-03     28.6877E-03
            6034            6022     28.3552E-03     28.6877E-03
            6035            6023     32.6252E-03     32.9390E-03
            6036            6023     32.6252E-03     32.9390E-03
            6017            6023     32.6252E-03     32.9390E-03
            6018            6023     32.6252E-03     32.9390E-03
            6019            6024     36.9689E-03     37.2681E-03
            6018            6024     36.9689E-03     37.2681E-03
            6037            6024     36.9689E-03     37.2681E-03
            6036            6024     36.9689E-03     37.2681E-03
            6020            6025     41.3385E-03     41.6118E-03
            6019            6025     41.3385E-03     41.6118E-03
            6037            6025     41.3385E-03     41.6118E-03
            6038            6025     41.3385E-03     41.6118E-03
            6021            6026     45.6687E-03     45.9354E-03
            6020            6026     45.6687E-03     45.9354E-03
            6039            6026     45.6687E-03     45.9354E-03
            6038            6026     45.6687E-03     45.9354E-03
            6040            6027     49.9081E-03     50.1803E-03
            6021            6027     49.9081E-03     50.1803E-03
            6022            6027     49.9081E-03     50.1803E-03
            6039            6027     49.9081E-03     50.1803E-03
            6041            6028     53.9875E-03     54.3112E-03
            6040            6028     53.9875E-03     54.3112E-03
            6023            6028     53.9875E-03     54.3112E-03
            6022            6028     53.9875E-03     54.3112E-03
            6041            6029     57.8017E-03     58.2580E-03
            6024            6029     57.8017E-03     58.2580E-03
            6023            6029     57.8017E-03     58.2580E-03
            6042            6029     57.8017E-03     58.2580E-03
            6043            6030     61.4472E-03     61.9268E-03
            6042            6030     61.4472E-03     61.9268E-03
            6024            6030     61.4472E-03     61.9268E-03
            6025            6030     61.4472E-03     61.9268E-03
            6026            6031     64.5095E-03     64.7468E-03
            6025            6031     64.5095E-03     64.7468E-03
            6044            6031     64.5095E-03     64.7468E-03
            6043            6031     64.5095E-03     64.7468E-03
            6046            6032     13.6469E-03     15.6568E-03
            6045            6032     13.6469E-03     15.6568E-03
            6028            6032     13.6469E-03     15.6568E-03
            6027            6032     13.6469E-03     15.6568E-03
            6047            6033     13.1546E-03     14.4222E-03
            6028            6033     13.1546E-03     14.4222E-03
            6029            6033     13.1546E-03     14.4222E-03
            6046            6033     13.1546E-03     14.4222E-03
            6047            6034     14.2061E-03     14.7303E-03
            6048            6034     14.2061E-03     14.7303E-03
            6030            6034     14.2061E-03     14.7303E-03
            6029            6034     14.2061E-03     14.7303E-03
            6048            6035     16.0585E-03     16.3401E-03
            6049            6035     16.0585E-03     16.3401E-03
            6031            6035     16.0585E-03     16.3401E-03
            6030            6035     16.0585E-03     16.3401E-03
            6050            6036     18.6352E-03     18.8547E-03
            6049            6036     18.6352E-03     18.8547E-03
            6032            6036     18.6352E-03     18.8547E-03
            6031            6036     18.6352E-03     18.8547E-03
            6033            6037     21.7409E-03     21.9443E-03
            6051            6037     21.7409E-03     21.9443E-03
            6050            6037     21.7409E-03     21.9443E-03
            6032            6037     21.7409E-03     21.9443E-03
            6051            6038     25.1932E-03     25.3987E-03
            6033            6038     25.1932E-03     25.3987E-03
            6034            6038     25.1932E-03     25.3987E-03
            6052            6038     25.1932E-03     25.3987E-03
            6053            6039     28.8784E-03     29.0579E-03
            6052            6039     28.8784E-03     29.0579E-03
            6034            6039     28.8784E-03     29.0579E-03
            6035            6039     28.8784E-03     29.0579E-03
            6053            6040     32.6910E-03     32.8330E-03
            6036            6040     32.6910E-03     32.8330E-03
            6054            6040     32.6910E-03     32.8330E-03
            6035            6040     32.6910E-03     32.8330E-03
            6054            6041     36.5722E-03     36.6404E-03
            6036            6041     36.5722E-03     36.6404E-03
            6055            6041     36.5722E-03     36.6404E-03
            6037            6041     36.5722E-03     36.6404E-03
            6055            6042     40.4517E-03     40.4306E-03
            6056            6042     40.4517E-03     40.4306E-03
            6037            6042     40.4517E-03     40.4306E-03
            6038            6042     40.4517E-03     40.4306E-03
            6039            6043     44.2885E-03     44.1454E-03
            6057            6043     44.2885E-03     44.1454E-03
            6056            6043     44.2885E-03     44.1454E-03
            6038            6043     44.2885E-03     44.1454E-03
            6057            6044     48.0140E-03     47.7371E-03
            6058            6044     48.0140E-03     47.7371E-03
            6039            6044     48.0140E-03     47.7371E-03
            6040            6044     48.0140E-03     47.7371E-03
            6059            6045     51.5953E-03     51.1833E-03
            6040            6045     51.5953E-03     51.1833E-03
            6058            6045     51.5953E-03     51.1833E-03
            6041            6045     51.5953E-03     51.1833E-03
            6059            6046     54.9207E-03     54.4084E-03
            6042            6046     54.9207E-03     54.4084E-03
            6060            6046     54.9207E-03     54.4084E-03
            6041            6046     54.9207E-03     54.4084E-03
            6060            6047     57.9996E-03     57.5328E-03
            6061            6047     57.9996E-03     57.5328E-03
            6043            6047     57.9996E-03     57.5328E-03
            6042            6047     57.9996E-03     57.5328E-03
            6061            6048     60.7742E-03     60.1082E-03
            6062            6048     60.7742E-03     60.1082E-03
            6044            6048     60.7742E-03     60.1082E-03
            6043            6048     60.7742E-03     60.1082E-03
            6063            6049     12.0457E-03     13.9338E-03
            6045            6049     12.0457E-03     13.9338E-03
            6046            6049     12.0457E-03     13.9338E-03
            6064            6049     12.0457E-03     13.9338E-03
            6065            6050     9.86479E-03     9.98836E-03
            6046            6050     9.86479E-03     9.98836E-03
            6064            6050     9.86479E-03     9.98836E-03
            6047            6050     9.86479E-03     9.98836E-03
            6065            6051     9.33464E-03     9.39863E-03
            6066            6051     9.33464E-03     9.39863E-03
            6047            6051     9.33464E-03     9.39863E-03
            6048            6051     9.33464E-03     9.39863E-03
            6049            6052     10.5619E-03     11.0949E-03
            6067            6052     10.5619E-03     11.0949E-03
            6066            6052     10.5619E-03     11.0949E-03
            6048            6052     10.5619E-03     11.0949E-03
            6068            6053     13.2147E-03     13.9495E-03
            6067            6053     13.2147E-03     13.9495E-03
            6049            6053     13.2147E-03     13.9495E-03
            6050            6053     13.2147E-03     13.9495E-03
            6068            6054     16.3166E-03     17.1197E-03
            6051            6054     16.3166E-03     17.1197E-03
            6050            6054     16.3166E-03     17.1197E-03
            6069            6054     16.3166E-03     17.1197E-03
            6051            6055     19.6034E-03     20.4278E-03
            6069            6055     19.6034E-03     20.4278E-03
            6070            6055     19.6034E-03     20.4278E-03
            6052            6055     19.6034E-03     20.4278E-03
            6070            6056     22.9914E-03     23.8087E-03
            6071            6056     22.9914E-03     23.8087E-03
            6052            6056     22.9914E-03     23.8087E-03
            6053            6056     22.9914E-03     23.8087E-03
            6071            6057     26.4650E-03     27.2337E-03
            6054            6057     26.4650E-03     27.2337E-03
            6072            6057     26.4650E-03     27.2337E-03
            6053            6057     26.4650E-03     27.2337E-03
            6055            6058     29.9731E-03     30.6788E-03
            6073            6058     29.9731E-03     30.6788E-03
            6054            6058     29.9731E-03     30.6788E-03
            6072            6058     29.9731E-03     30.6788E-03
            6056            6059     33.5389E-03     34.1281E-03
            6055            6059     33.5389E-03     34.1281E-03
            6073            6059     33.5389E-03     34.1281E-03
            6074            6059     33.5389E-03     34.1281E-03
            6074            6060     37.1228E-03     37.6004E-03
            6056            6060     37.1228E-03     37.6004E-03
            6075            6060     37.1228E-03     37.6004E-03
            6057            6060     37.1228E-03     37.6004E-03
            6075            6061     40.8013E-03     41.0994E-03
            6076            6061     40.8013E-03     41.0994E-03
            6057            6061     40.8013E-03     41.0994E-03
            6058            6061     40.8013E-03     41.0994E-03
            6058            6062     44.5355E-03     44.7126E-03
            6077            6062     44.5355E-03     44.7126E-03
            6059            6062     44.5355E-03     44.7126E-03
            6076            6062     44.5355E-03     44.7126E-03
            6060            6063     48.5643E-03     48.5950E-03
            6077            6063     48.5643E-03     48.5950E-03
            6059            6063     48.5643E-03     48.5950E-03
            6078            6063     48.5643E-03     48.5950E-03
            6079            6064     52.8311E-03     52.9651E-03
            6061            6064     52.8311E-03     52.9651E-03
            6078            6064     52.8311E-03     52.9651E-03
            6060            6064     52.8311E-03     52.9651E-03
            6061            6065     58.8035E-03     60.1076E-03
            6079            6065     58.8035E-03     60.1076E-03
            6080            6065     58.8035E-03     60.1076E-03
            6062            6065     58.8035E-03     60.1076E-03
            6081            6066     11.8134E-03     10.8390E-03
            6082            6066     11.8134E-03     10.8390E-03
            6064            6066     11.8134E-03     10.8390E-03
            6063            6066     11.8134E-03     10.8390E-03
            6082            6067     6.88374E-03     5.93751E-03
            6064            6067     6.88374E-03     5.93751E-03
            6083            6067     6.88374E-03     5.93751E-03
            6065            6067     6.88374E-03     5.93751E-03
            6083            6068     4.19529E-03     3.92283E-03
            6065            6068     4.19529E-03     3.92283E-03
            6084            6068     4.19529E-03     3.92283E-03
            6066            6068     4.19529E-03     3.92283E-03
            6084            6069     4.75848E-03     5.45898E-03
            6066            6069     4.75848E-03     5.45898E-03
            6067            6069     4.75848E-03     5.45898E-03
            6085            6069     4.75848E-03     5.45898E-03
            6086            6070     7.37375E-03     8.54847E-03
            6067            6070     7.37375E-03     8.54847E-03
            6068            6070     7.37375E-03     8.54847E-03
            6085            6070     7.37375E-03     8.54847E-03
            6086            6071     10.5640E-03     11.8964E-03
            6087            6071     10.5640E-03     11.8964E-03
            6068            6071     10.5640E-03     11.8964E-03
            6069            6071     10.5640E-03     11.8964E-03
            6088            6072     13.8707E-03     15.2643E-03
            6069            6072     13.8707E-03     15.2643E-03
            6070            6072     13.8707E-03     15.2643E-03
            6087            6072     13.8707E-03     15.2643E-03
            6089            6073     17.2126E-03     18.6275E-03
            6088            6073     17.2126E-03     18.6275E-03
            6071            6073     17.2126E-03     18.6275E-03
            6070            6073     17.2126E-03     18.6275E-03
            6071            6074     20.5933E-03     21.9973E-03
            6072            6074     20.5933E-03     21.9973E-03
            6089            6074     20.5933E-03     21.9973E-03
            6090            6074     20.5933E-03     21.9973E-03
            6091            6075     24.0336E-03     25.4085E-03
            6072            6075     24.0336E-03     25.4085E-03
            6073            6075     24.0336E-03     25.4085E-03
            6090            6075     24.0336E-03     25.4085E-03
            6092            6076     27.5588E-03     28.8872E-03
            6073            6076     27.5588E-03     28.8872E-03
            6074            6076     27.5588E-03     28.8872E-03
            6091            6076     27.5588E-03     28.8872E-03
            6093            6077     31.2548E-03     32.5267E-03
            6075            6077     31.2548E-03     32.5267E-03
            6092            6077     31.2548E-03     32.5267E-03
            6074            6077     31.2548E-03     32.5267E-03
            6076            6078     35.1676E-03     36.3892E-03
            6075            6078     35.1676E-03     36.3892E-03
            6093            6078     35.1676E-03     36.3892E-03
            6094            6078     35.1676E-03     36.3892E-03
            6095            6079     39.5538E-03     40.7323E-03
            6077            6079     39.5538E-03     40.7323E-03
            6076            6079     39.5538E-03     40.7323E-03
            6094            6079     39.5538E-03     40.7323E-03
            6077            6080     44.5132E-03     45.7273E-03
            6096            6080     44.5132E-03     45.7273E-03
            6078            6080     44.5132E-03     45.7273E-03
            6095            6080     44.5132E-03     45.7273E-03
            6096            6081     51.0655E-03     52.3603E-03
            6097            6081     51.0655E-03     52.3603E-03
            6078            6081     51.0655E-03     52.3603E-03
            6079            6081     51.0655E-03     52.3603E-03
            6079            6082     60.4879E-03     61.4182E-03
            6097            6082     60.4879E-03     61.4182E-03
            6080            6082     60.4879E-03     61.4182E-03
            6098            6082     60.4879E-03     61.4182E-03
            6081            6083     11.1022E-03     9.67329E-03
            6082            6083     11.1022E-03     9.67329E-03
            6100            6083     11.1022E-03     9.67329E-03
            6099            6083     11.1022E-03     9.67329E-03
            6083            6084     7.90331E-03     6.72088E-03
            6100            6084     7.90331E-03     6.72088E-03
            6101            6084     7.90331E-03     6.72088E-03
            6082            6084     7.90331E-03     6.72088E-03
            6102            6085     5.73688E-03     5.25751E-03
            6083            6085     5.73688E-03     5.25751E-03
            6084            6085     5.73688E-03     5.25751E-03
            6101            6085     5.73688E-03     5.25751E-03
            6085            6086     6.14597E-03     6.52641E-03
            6102            6086     6.14597E-03     6.52641E-03
            6103            6086     6.14597E-03     6.52641E-03
            6084            6086     6.14597E-03     6.52641E-03
            6104            6087     8.49375E-03     9.36953E-03
            6086            6087     8.49375E-03     9.36953E-03
            6103            6087     8.49375E-03     9.36953E-03
            6085            6087     8.49375E-03     9.36953E-03
            6105            6088     11.5007E-03     12.5962E-03
            6087            6088     11.5007E-03     12.5962E-03
            6086            6088     11.5007E-03     12.5962E-03
            6104            6088     11.5007E-03     12.5962E-03
            6105            6089     14.7520E-03     15.9475E-03
            6087            6089     14.7520E-03     15.9475E-03
            6088            6089     14.7520E-03     15.9475E-03
            6106            6089     14.7520E-03     15.9475E-03
            6088            6090     18.0935E-03     19.3390E-03
            6089            6090     18.0935E-03     19.3390E-03
            6107            6090     18.0935E-03     19.3390E-03
            6106            6090     18.0935E-03     19.3390E-03
            6089            6091     21.5087E-03     22.7767E-03
            6108            6091     21.5087E-03     22.7767E-03
            6090            6091     21.5087E-03     22.7767E-03
            6107            6091     21.5087E-03     22.7767E-03
            6091            6092     24.9947E-03     26.2725E-03
            6108            6092     24.9947E-03     26.2725E-03
            6109            6092     24.9947E-03     26.2725E-03
            6090            6092     24.9947E-03     26.2725E-03
            6092            6093     28.6023E-03     29.8714E-03
            6091            6093     28.6023E-03     29.8714E-03
            6110            6093     28.6023E-03     29.8714E-03
            6109            6093     28.6023E-03     29.8714E-03
            6110            6094     32.3638E-03     33.6318E-03
            6093            6094     32.3638E-03     33.6318E-03
            6111            6094     32.3638E-03     33.6318E-03
            6092            6094     32.3638E-03     33.6318E-03
            6111            6095     36.4274E-03     37.6611E-03
            6094            6095     36.4274E-03     37.6611E-03
            6093            6095     36.4274E-03     37.6611E-03
            6112            6095     36.4274E-03     37.6611E-03
            6094            6096     40.9119E-03     42.1372E-03
            6112            6096     40.9119E-03     42.1372E-03
            6113            6096     40.9119E-03     42.1372E-03
            6095            6096     40.9119E-03     42.1372E-03
            6113            6097     46.1590E-03     47.2887E-03
            6096            6097     46.1590E-03     47.2887E-03
            6095            6097     46.1590E-03     47.2887E-03
            6114            6097     46.1590E-03     47.2887E-03
            6096            6098     53.0585E-03     53.7633E-03
            6115            6098     53.0585E-03     53.7633E-03
            6097            6098     53.0585E-03     53.7633E-03
            6114            6098     53.0585E-03     53.7633E-03
            6115            6099     60.2059E-03     60.3240E-03
            6098            6099     60.2059E-03     60.3240E-03
            6116            6099     60.2059E-03     60.3240E-03
            6097            6099     60.2059E-03     60.3240E-03
            6099            6100     10.0723E-03     8.81466E-03
            6117            6100     10.0723E-03     8.81466E-03
            6118            6100     10.0723E-03     8.81466E-03
            6100            6100     10.0723E-03     8.81466E-03
            6119            6101     7.83524E-03     6.71548E-03
            6118            6101     7.83524E-03     6.71548E-03
            6100            6101     7.83524E-03     6.71548E-03
            6101            6101     7.83524E-03     6.71548E-03
            6102            6102     6.72317E-03     6.19003E-03
            6119            6102     6.72317E-03     6.19003E-03
            6120            6102     6.72317E-03     6.19003E-03
            6101            6102     6.72317E-03     6.19003E-03
            6102            6103     7.35383E-03     7.56367E-03
            6120            6103     7.35383E-03     7.56367E-03
            6121            6103     7.35383E-03     7.56367E-03
            6103            6103     7.35383E-03     7.56367E-03
            6103            6104     9.52338E-03     10.2111E-03
            6122            6104     9.52338E-03     10.2111E-03
            6121            6104     9.52338E-03     10.2111E-03
            6104            6104     9.52338E-03     10.2111E-03
            6123            6105     12.4399E-03     13.3512E-03
            6104            6105     12.4399E-03     13.3512E-03
            6105            6105     12.4399E-03     13.3512E-03
            6122            6105     12.4399E-03     13.3512E-03
            6106            6106     15.6220E-03     16.6548E-03
            6123            6106     15.6220E-03     16.6548E-03
            6105            6106     15.6220E-03     16.6548E-03
            6124            6106     15.6220E-03     16.6548E-03
            6106            6107     18.9621E-03     20.0613E-03
            6124            6107     18.9621E-03     20.0613E-03
            6107            6107     18.9621E-03     20.0613E-03
            6125            6107     18.9621E-03     20.0613E-03
            6108            6108     22.3917E-03     23.5386E-03
            6125            6108     22.3917E-03     23.5386E-03
            6107            6108     22.3917E-03     23.5386E-03
            6126            6108     22.3917E-03     23.5386E-03
            6108            6109     25.9236E-03     27.0995E-03
            6126            6109     25.9236E-03     27.0995E-03
            6109            6109     25.9236E-03     27.0995E-03
            6127            6109     25.9236E-03     27.0995E-03
            6109            6110     29.5666E-03     30.7729E-03
            6127            6110     29.5666E-03     30.7729E-03
            6110            6110     29.5666E-03     30.7729E-03
            6128            6110     29.5666E-03     30.7729E-03
            6110            6111     33.3866E-03     34.5975E-03
            6128            6111     33.3866E-03     34.5975E-03
            6111            6111     33.3866E-03     34.5975E-03
            6129            6111     33.3866E-03     34.5975E-03
            6111            6112     37.4684E-03     38.6780E-03
            6112            6112     37.4684E-03     38.6780E-03
            6129            6112     37.4684E-03     38.6780E-03
            6130            6112     37.4684E-03     38.6780E-03
            6130            6113     41.9193E-03     43.0799E-03
            6131            6113     41.9193E-03     43.0799E-03
            6112            6113     41.9193E-03     43.0799E-03
            6113            6113     41.9193E-03     43.0799E-03
            6113            6114     47.1340E-03     48.0732E-03
            6132            6114     47.1340E-03     48.0732E-03
            6131            6114     47.1340E-03     48.0732E-03
            6114            6114     47.1340E-03     48.0732E-03
            6114            6115     52.7011E-03     53.4764E-03
            6133            6115     52.7011E-03     53.4764E-03
            6115            6115     52.7011E-03     53.4764E-03
            6132            6115     52.7011E-03     53.4764E-03
            6134            6116     57.8084E-03     58.7422E-03
            6133            6116     57.8084E-03     58.7422E-03
            6115            6116     57.8084E-03     58.7422E-03
            6116            6116     57.8084E-03     58.7422E-03
            6118            6117     9.69587E-03     8.44675E-03
            6117            6117     9.69587E-03     8.44675E-03
            6136            6117     9.69587E-03     8.44675E-03
            6135            6117     9.69587E-03     8.44675E-03
            6136            6118     7.87271E-03     6.90804E-03
            6118            6118     7.87271E-03     6.90804E-03
            6119            6118     7.87271E-03     6.90804E-03
            6137            6118     7.87271E-03     6.90804E-03
            6120            6119     7.31076E-03     6.88219E-03
            6119            6119     7.31076E-03     6.88219E-03
            6138            6119     7.31076E-03     6.88219E-03
            6137            6119     7.31076E-03     6.88219E-03
            6139            6120     8.31588E-03     8.47502E-03
            6138            6120     8.31588E-03     8.47502E-03
            6120            6120     8.31588E-03     8.47502E-03
            6121            6120     8.31588E-03     8.47502E-03
            6140            6121     10.4688E-03     11.0333E-03
            6121            6121     10.4688E-03     11.0333E-03
            6122            6121     10.4688E-03     11.0333E-03
            6139            6121     10.4688E-03     11.0333E-03
            6122            6122     13.2750E-03     14.0544E-03
            6141            6122     13.2750E-03     14.0544E-03
            6140            6122     13.2750E-03     14.0544E-03
            6123            6122     13.2750E-03     14.0544E-03
            6141            6123     16.4199E-03     17.3115E-03
            6123            6123     16.4199E-03     17.3115E-03
            6142            6123     16.4199E-03     17.3115E-03
            6124            6123     16.4199E-03     17.3115E-03
            6125            6124     19.7298E-03     20.6970E-03
            6142            6124     19.7298E-03     20.6970E-03
            6124            6124     19.7298E-03     20.6970E-03
            6143            6124     19.7298E-03     20.6970E-03
            6144            6125     23.1682E-03     24.1880E-03
            6126            6125     23.1682E-03     24.1880E-03
            6143            6125     23.1682E-03     24.1880E-03
            6125            6125     23.1682E-03     24.1880E-03
            6145            6126     26.7054E-03     27.7756E-03
            6127            6126     26.7054E-03     27.7756E-03
            6126            6126     26.7054E-03     27.7756E-03
            6144            6126     26.7054E-03     27.7756E-03
            6127            6127     30.3530E-03     31.4629E-03
            6145            6127     30.3530E-03     31.4629E-03
            6128            6127     30.3530E-03     31.4629E-03
            6146            6127     30.3530E-03     31.4629E-03
            6128            6128     34.1496E-03     35.2874E-03
            6146            6128     34.1496E-03     35.2874E-03
            6129            6128     34.1496E-03     35.2874E-03
            6147            6128     34.1496E-03     35.2874E-03
            6148            6129     38.1109E-03     39.2582E-03
            6130            6129     38.1109E-03     39.2582E-03
            6129            6129     38.1109E-03     39.2582E-03
            6147            6129     38.1109E-03     39.2582E-03
            6148            6130     42.3990E-03     43.4585E-03
            6130            6130     42.3990E-03     43.4585E-03
            6131            6130     42.3990E-03     43.4585E-03
            6149            6130     42.3990E-03     43.4585E-03
            6149            6131     46.8675E-03     47.8540E-03
            6150            6131     46.8675E-03     47.8540E-03
            6131            6131     46.8675E-03     47.8540E-03
            6132            6131     46.8675E-03     47.8540E-03
            6133            6132     51.3131E-03     52.2359E-03
            6132            6132     51.3131E-03     52.2359E-03
            6150            6132     51.3131E-03     52.2359E-03
            6151            6132     51.3131E-03     52.2359E-03
            6151            6133     55.7051E-03     56.2787E-03
            6152            6133     55.7051E-03     56.2787E-03
            6134            6133     55.7051E-03     56.2787E-03
            6133            6133     55.7051E-03     56.2787E-03
            6136            6134     9.55557E-03     8.40029E-03
            6153            6134     9.55557E-03     8.40029E-03
            6135            6134     9.55557E-03     8.40029E-03
            6154            6134     9.55557E-03     8.40029E-03
            6136            6135     8.22991E-03     7.38136E-03
            6154            6135     8.22991E-03     7.38136E-03
            6137            6135     8.22991E-03     7.38136E-03
            6155            6135     8.22991E-03     7.38136E-03
            6138            6136     8.04401E-03     7.72047E-03
            6156            6136     8.04401E-03     7.72047E-03
            6155            6136     8.04401E-03     7.72047E-03
            6137            6136     8.04401E-03     7.72047E-03
            6139            6137     9.15363E-03     9.33194E-03
            6157            6137     9.15363E-03     9.33194E-03
            6138            6137     9.15363E-03     9.33194E-03
            6156            6137     9.15363E-03     9.33194E-03
            6140            6138     11.2931E-03     11.7873E-03
            6158            6138     11.2931E-03     11.7873E-03
            6157            6138     11.2931E-03     11.7873E-03
            6139            6138     11.2931E-03     11.7873E-03
            6140            6139     14.0221E-03     14.6906E-03
            6158            6139     14.0221E-03     14.6906E-03
            6159            6139     14.0221E-03     14.6906E-03
            6141            6139     14.0221E-03     14.6906E-03
            6159            6140     17.0882E-03     17.8549E-03
            6160            6140     17.0882E-03     17.8549E-03
            6141            6140     17.0882E-03     17.8549E-03
            6142            6140     17.0882E-03     17.8549E-03
            6160            6141     20.3651E-03     21.1938E-03
            6142            6141     20.3651E-03     21.1938E-03
            6161            6141     20.3651E-03     21.1938E-03
            6143            6141     20.3651E-03     21.1938E-03
            6143            6142     23.7719E-03     24.6572E-03
            6144            6142     23.7719E-03     24.6572E-03
            6162            6142     23.7719E-03     24.6572E-03
            6161            6142     23.7719E-03     24.6572E-03
            6145            6143     27.2802E-03     28.2201E-03
            6144            6143     27.2802E-03     28.2201E-03
            6162            6143     27.2802E-03     28.2201E-03
            6163            6143     27.2802E-03     28.2201E-03
            6145            6144     30.8843E-03     31.8754E-03
            6146            6144     30.8843E-03     31.8754E-03
            6163            6144     30.8843E-03     31.8754E-03
            6164            6144     30.8843E-03     31.8754E-03
            6165            6145     34.5582E-03     35.6028E-03
            6164            6145     34.5582E-03     35.6028E-03
            6147            6145     34.5582E-03     35.6028E-03
            6146            6145     34.5582E-03     35.6028E-03
            6147            6146     38.3538E-03     39.4016E-03
            6165            6146     38.3538E-03     39.4016E-03
            6148            6146     38.3538E-03     39.4016E-03
            6166            6146     38.3538E-03     39.4016E-03
            6148            6147     42.1859E-03     43.2319E-03
            6167            6147     42.1859E-03     43.2319E-03
            6149            6147     42.1859E-03     43.2319E-03
            6166            6147     42.1859E-03     43.2319E-03
            6149            6148     46.0108E-03     46.9909E-03
            6167            6148     46.0108E-03     46.9909E-03
            6150            6148     46.0108E-03     46.9909E-03
            6168            6148     46.0108E-03     46.9909E-03
            6151            6149     49.7919E-03     50.5663E-03
            6150            6149     49.7919E-03     50.5663E-03
            6168            6149     49.7919E-03     50.5663E-03
            6169            6149     49.7919E-03     50.5663E-03
            6169            6150     53.3489E-03     54.0294E-03
            6170            6150     53.3489E-03     54.0294E-03
            6151            6150     53.3489E-03     54.0294E-03
            6152            6150     53.3489E-03     54.0294E-03
            6171            6151     9.70736E-03     8.65661E-03
            6153            6151     9.70736E-03     8.65661E-03
            6154            6151     9.70736E-03     8.65661E-03
            6172            6151     9.70736E-03     8.65661E-03
            6154            6152     8.75302E-03     8.06834E-03
            6172            6152     8.75302E-03     8.06834E-03
            6155            6152     8.75302E-03     8.06834E-03
            6173            6152     8.75302E-03     8.06834E-03
            6174            6153     8.84869E-03     8.64037E-03
            6155            6153     8.84869E-03     8.64037E-03
            6156            6153     8.84869E-03     8.64037E-03
            6173            6153     8.84869E-03     8.64037E-03
            6175            6154     10.0133E-03     10.2138E-03
            6174            6154     10.0133E-03     10.2138E-03
            6157            6154     10.0133E-03     10.2138E-03
            6156            6154     10.0133E-03     10.2138E-03
            6158            6155     12.0425E-03     12.4928E-03
            6175            6155     12.0425E-03     12.4928E-03
            6157            6155     12.0425E-03     12.4928E-03
            6176            6155     12.0425E-03     12.4928E-03
            6159            6156     14.6645E-03     15.2365E-03
            6158            6156     14.6645E-03     15.2365E-03
            6177            6156     14.6645E-03     15.2365E-03
            6176            6156     14.6645E-03     15.2365E-03
            6159            6157     17.6427E-03     18.2768E-03
            6160            6157     17.6427E-03     18.2768E-03
            6177            6157     17.6427E-03     18.2768E-03
            6178            6157     17.6427E-03     18.2768E-03
            6178            6158     20.8416E-03     21.5228E-03
            6161            6158     20.8416E-03     21.5228E-03
            6179            6158     20.8416E-03     21.5228E-03
            6160            6158     20.8416E-03     21.5228E-03
            6161            6159     24.1826E-03     24.9117E-03
            6179            6159     24.1826E-03     24.9117E-03
            6180            6159     24.1826E-03     24.9117E-03
            6162            6159     24.1826E-03     24.9117E-03
            6162            6160     27.6228E-03     28.4041E-03
            6180            6160     27.6228E-03     28.4041E-03
            6181            6160     27.6228E-03     28.4041E-03
            6163            6160     27.6228E-03     28.4041E-03
            6163            6161     31.1125E-03     31.9621E-03
            6182            6161     31.1125E-03     31.9621E-03
            6181            6161     31.1125E-03     31.9621E-03
            6164            6161     31.1125E-03     31.9621E-03
            6164            6162     34.6475E-03     35.5496E-03
            6182            6162     34.6475E-03     35.5496E-03
            6183            6162     34.6475E-03     35.5496E-03
            6165            6162     34.6475E-03     35.5496E-03
            6166            6163     38.1453E-03     39.1132E-03
            6183            6163     38.1453E-03     39.1132E-03
            6184            6163     38.1453E-03     39.1132E-03
            6165            6163     38.1453E-03     39.1132E-03
            6185            6164     41.5772E-03     42.5573E-03
            6166            6164     41.5772E-03     42.5573E-03
            6184            6164     41.5772E-03     42.5573E-03
            6167            6164     41.5772E-03     42.5573E-03
            6185            6165     44.8840E-03     45.7927E-03
            6186            6165     44.8840E-03     45.7927E-03
            6167            6165     44.8840E-03     45.7927E-03
            6168            6165     44.8840E-03     45.7927E-03
            6169            6166     47.9916E-03     48.8046E-03
            6187            6166     47.9916E-03     48.8046E-03
            6168            6166     47.9916E-03     48.8046E-03
            6186            6166     47.9916E-03     48.8046E-03
            6169            6167     51.0885E-03     51.6269E-03
            6188            6167     51.0885E-03     51.6269E-03
            6187            6167     51.0885E-03     51.6269E-03
            6170            6167     51.0885E-03     51.6269E-03
            6189            6168     10.0545E-03     9.13883E-03
            6172            6168     10.0545E-03     9.13883E-03
            6171            6168     10.0545E-03     9.13883E-03
            6190            6168     10.0545E-03     9.13883E-03
            6173            6169     9.47172E-03     8.96555E-03
            6190            6169     9.47172E-03     8.96555E-03
            6191            6169     9.47172E-03     8.96555E-03
            6172            6169     9.47172E-03     8.96555E-03
            6174            6170     9.70468E-03     9.63916E-03
            6173            6170     9.70468E-03     9.63916E-03
            6191            6170     9.70468E-03     9.63916E-03
            6192            6170     9.70468E-03     9.63916E-03
            6193            6171     10.8423E-03     11.0931E-03
            6174            6171     10.8423E-03     11.0931E-03
            6192            6171     10.8423E-03     11.0931E-03
            6175            6171     10.8423E-03     11.0931E-03
            6194            6172     12.7567E-03     13.1697E-03
            6176            6172     12.7567E-03     13.1697E-03
            6193            6172     12.7567E-03     13.1697E-03
            6175            6172     12.7567E-03     13.1697E-03
            6194            6173     15.2383E-03     15.7054E-03
            6177            6173     15.2383E-03     15.7054E-03
            6195            6173     15.2383E-03     15.7054E-03
            6176            6173     15.2383E-03     15.7054E-03
            6178            6174     18.0936E-03     18.5837E-03
            6195            6174     18.0936E-03     18.5837E-03
            6196            6174     18.0936E-03     18.5837E-03
            6177            6174     18.0936E-03     18.5837E-03
            6196            6175     21.1756E-03     21.6899E-03
            6179            6175     21.1756E-03     21.6899E-03
            6178            6175     21.1756E-03     21.6899E-03
            6197            6175     21.1756E-03     21.6899E-03
            6179            6176     24.4077E-03     24.9541E-03
            6180            6176     24.4077E-03     24.9541E-03
            6198            6176     24.4077E-03     24.9541E-03
            6197            6176     24.4077E-03     24.9541E-03
            6180            6177     27.7186E-03     28.3170E-03
            6181            6177     27.7186E-03     28.3170E-03
            6198            6177     27.7186E-03     28.3170E-03
            6199            6177     27.7186E-03     28.3170E-03
            6181            6178     31.0735E-03     31.7288E-03
            6200            6178     31.0735E-03     31.7288E-03
            6199            6178     31.0735E-03     31.7288E-03
            6182            6178     31.0735E-03     31.7288E-03
            6183            6179     34.3925E-03     35.1335E-03
            6200            6179     34.3925E-03     35.1335E-03
            6201            6179     34.3925E-03     35.1335E-03
            6182            6179     34.3925E-03     35.1335E-03
            6202            6180     37.6289E-03     38.4434E-03
            6183            6180     37.6289E-03     38.4434E-03
            6201            6180     37.6289E-03     38.4434E-03
            6184            6180     37.6289E-03     38.4434E-03
            6185            6181     40.6840E-03     41.5626E-03
            6203            6181     40.6840E-03     41.5626E-03
            6202            6181     40.6840E-03     41.5626E-03
            6184            6181     40.6840E-03     41.5626E-03
            6203            6182     43.4945E-03     44.3858E-03
            6204            6182     43.4945E-03     44.3858E-03
            6186            6182     43.4945E-03     44.3858E-03
            6185            6182     43.4945E-03     44.3858E-03
            6186            6183     46.1230E-03     46.8540E-03
            6205            6183     46.1230E-03     46.8540E-03
            6204            6183     46.1230E-03     46.8540E-03
            6187            6183     46.1230E-03     46.8540E-03
            6187            6184     48.6087E-03     49.1609E-03
            6206            6184     48.6087E-03     49.1609E-03
            6205            6184     48.6087E-03     49.1609E-03
            6188            6184     48.6087E-03     49.1609E-03
            6190            6185     10.5865E-03     9.88990E-03
            6208            6185     10.5865E-03     9.88990E-03
            6189            6185     10.5865E-03     9.88990E-03
            6207            6185     10.5865E-03     9.88990E-03
            6209            6186     10.2685E-03     9.99220E-03
            6191            6186     10.2685E-03     9.99220E-03
            6190            6186     10.2685E-03     9.99220E-03
            6208            6186     10.2685E-03     9.99220E-03
            6192            6187     10.6032E-03     10.7111E-03
            6191            6187     10.6032E-03     10.7111E-03
            6209            6187     10.6032E-03     10.7111E-03
            6210            6187     10.6032E-03     10.7111E-03
            6193            6188     11.6545E-03     11.9909E-03
            6192            6188     11.6545E-03     11.9909E-03
            6210            6188     11.6545E-03     11.9909E-03
            6211            6188     11.6545E-03     11.9909E-03
            6212            6189     13.4526E-03     13.8155E-03
            6211            6189     13.4526E-03     13.8155E-03
            6193            6189     13.4526E-03     13.8155E-03
            6194            6189     13.4526E-03     13.8155E-03
            6194            6190     15.7946E-03     16.1372E-03
            6195            6190     15.7946E-03     16.1372E-03
            6212            6190     15.7946E-03     16.1372E-03
            6213            6190     15.7946E-03     16.1372E-03
            6196            6191     18.4809E-03     18.8111E-03
            6213            6191     18.4809E-03     18.8111E-03
            6214            6191     18.4809E-03     18.8111E-03
            6195            6191     18.4809E-03     18.8111E-03
            6197            6192     21.4054E-03     21.7329E-03
            6214            6192     21.4054E-03     21.7329E-03
            6196            6192     21.4054E-03     21.7329E-03
            6215            6192     21.4054E-03     21.7329E-03
            6215            6193     24.4660E-03     24.8125E-03
            6216            6193     24.4660E-03     24.8125E-03
            6197            6193     24.4660E-03     24.8125E-03
            6198            6193     24.4660E-03     24.8125E-03
            6217            6194     27.6102E-03     27.9861E-03
            6199            6194     27.6102E-03     27.9861E-03
            6198            6194     27.6102E-03     27.9861E-03
            6216            6194     27.6102E-03     27.9861E-03
            6200            6195     30.7618E-03     31.1946E-03
            6217            6195     30.7618E-03     31.1946E-03
            6218            6195     30.7618E-03     31.1946E-03
            6199            6195     30.7618E-03     31.1946E-03
            6201            6196     33.8670E-03     34.3681E-03
            6218            6196     33.8670E-03     34.3681E-03
            6200            6196     33.8670E-03     34.3681E-03
            6219            6196     33.8670E-03     34.3681E-03
            6202            6197     36.8267E-03     37.4293E-03
            6220            6197     36.8267E-03     37.4293E-03
            6201            6197     36.8267E-03     37.4293E-03
            6219            6197     36.8267E-03     37.4293E-03
            6221            6198     39.5497E-03     40.2575E-03
            6220            6198     39.5497E-03     40.2575E-03
            6203            6198     39.5497E-03     40.2575E-03
            6202            6198     39.5497E-03     40.2575E-03
            6222            6199     41.9490E-03     42.7256E-03
            6221            6199     41.9490E-03     42.7256E-03
            6203            6199     41.9490E-03     42.7256E-03
            6204            6199     41.9490E-03     42.7256E-03
            6222            6200     44.0307E-03     44.7846E-03
            6204            6200     44.0307E-03     44.7846E-03
            6205            6200     44.0307E-03     44.7846E-03
            6223            6200     44.0307E-03     44.7846E-03
            6224            6201     46.0560E-03     46.5088E-03
            6206            6201     46.0560E-03     46.5088E-03
            6223            6201     46.0560E-03     46.5088E-03
            6205            6201     46.0560E-03     46.5088E-03
            6207            6202     11.2447E-03     10.7756E-03
            6208            6202     11.2447E-03     10.7756E-03
            6226            6202     11.2447E-03     10.7756E-03
            6225            6202     11.2447E-03     10.7756E-03
            6226            6203     11.1588E-03     11.1994E-03
            6208            6203     11.1588E-03     11.1994E-03
            6227            6203     11.1588E-03     11.1994E-03
            6209            6203     11.1588E-03     11.1994E-03
            6209            6204     11.4211E-03     11.8422E-03
            6227            6204     11.4211E-03     11.8422E-03
            6228            6204     11.4211E-03     11.8422E-03
            6210            6204     11.4211E-03     11.8422E-03
            6228            6205     12.4928E-03     12.8743E-03
            6210            6205     12.4928E-03     12.8743E-03
            6211            6205     12.4928E-03     12.8743E-03
            6229            6205     12.4928E-03     12.8743E-03
            6211            6206     14.2180E-03     14.4891E-03
            6212            6206     14.2180E-03     14.4891E-03
            6230            6206     14.2180E-03     14.4891E-03
            6229            6206     14.2180E-03     14.4891E-03
            6212            6207     16.3823E-03     16.5856E-03
            6231            6207     16.3823E-03     16.5856E-03
            6213            6207     16.3823E-03     16.5856E-03
            6230            6207     16.3823E-03     16.5856E-03
            6213            6208     18.8792E-03     19.0352E-03
            6231            6208     18.8792E-03     19.0352E-03
            6214            6208     18.8792E-03     19.0352E-03
            6232            6208     18.8792E-03     19.0352E-03
            6215            6209     21.5806E-03     21.7191E-03
            6232            6209     21.5806E-03     21.7191E-03
            6233            6209     21.5806E-03     21.7191E-03
            6214            6209     21.5806E-03     21.7191E-03
            6234            6210     24.4225E-03     24.5533E-03
            6233            6210     24.4225E-03     24.5533E-03
            6215            6210     24.4225E-03     24.5533E-03
            6216            6210     24.4225E-03     24.5533E-03
            6216            6211     27.3265E-03     27.4675E-03
            6235            6211     27.3265E-03     27.4675E-03
            6217            6211     27.3265E-03     27.4675E-03
            6234            6211     27.3265E-03     27.4675E-03
            6218            6212     30.2379E-03     30.3998E-03
            6217            6212     30.2379E-03     30.3998E-03
            6235            6212     30.2379E-03     30.3998E-03
            6236            6212     30.2379E-03     30.3998E-03
            6219            6213     33.0797E-03     33.2876E-03
            6236            6213     33.0797E-03     33.2876E-03
            6218            6213     33.0797E-03     33.2876E-03
            6237            6213     33.0797E-03     33.2876E-03
            6219            6214     35.7665E-03     36.0504E-03
            6237            6214     35.7665E-03     36.0504E-03
            6220            6214     35.7665E-03     36.0504E-03
            6238            6214     35.7665E-03     36.0504E-03
            6238            6215     38.1893E-03     38.5903E-03
            6220            6215     38.1893E-03     38.5903E-03
            6221            6215     38.1893E-03     38.5903E-03
            6239            6215     38.1893E-03     38.5903E-03
            6221            6216     40.2181E-03     40.7608E-03
            6239            6216     40.2181E-03     40.7608E-03
            6240            6216     40.2181E-03     40.7608E-03
            6222            6216     40.2181E-03     40.7608E-03
            6241            6217     41.7938E-03     42.4081E-03
            6222            6217     41.7938E-03     42.4081E-03
            6240            6217     41.7938E-03     42.4081E-03
            6223            6217     41.7938E-03     42.4081E-03
            6242            6218     43.2200E-03     43.7180E-03
            6223            6218     43.2200E-03     43.7180E-03
            6224            6218     43.2200E-03     43.7180E-03
            6241            6218     43.2200E-03     43.7180E-03
            6244            6219     11.9905E-03     12.0992E-03
            6226            6219     11.9905E-03     12.0992E-03
            6243            6219     11.9905E-03     12.0992E-03
            6225            6219     11.9905E-03     12.0992E-03
            6227            6220     11.7268E-03     12.5260E-03
            6226            6220     11.7268E-03     12.5260E-03
            6244            6220     11.7268E-03     12.5260E-03
            6245            6220     11.7268E-03     12.5260E-03
            6245            6221     12.2817E-03     12.8869E-03
            6228            6221     12.2817E-03     12.8869E-03
            6227            6221     12.2817E-03     12.8869E-03
            6246            6221     12.2817E-03     12.8869E-03
            6229            6222     13.4958E-03     13.7929E-03
            6247            6222     13.4958E-03     13.7929E-03
            6228            6222     13.4958E-03     13.7929E-03
            6246            6222     13.4958E-03     13.7929E-03
            6248            6223     15.1189E-03     15.2634E-03
            6229            6223     15.1189E-03     15.2634E-03
            6247            6223     15.1189E-03     15.2634E-03
            6230            6223     15.1189E-03     15.2634E-03
            6249            6224     17.1129E-03     17.1593E-03
            6230            6224     17.1129E-03     17.1593E-03
            6231            6224     17.1129E-03     17.1593E-03
            6248            6224     17.1129E-03     17.1593E-03
            6231            6225     19.3618E-03     19.3583E-03
            6232            6225     19.3618E-03     19.3583E-03
            6250            6225     19.3618E-03     19.3583E-03
            6249            6225     19.3618E-03     19.3583E-03
            6250            6226     21.8012E-03     21.7604E-03
            6251            6226     21.8012E-03     21.7604E-03
            6232            6226     21.8012E-03     21.7604E-03
            6233            6226     21.8012E-03     21.7604E-03
            6251            6227     24.3514E-03     24.2831E-03
            6252            6227     24.3514E-03     24.2831E-03
            6233            6227     24.3514E-03     24.2831E-03
            6234            6227     24.3514E-03     24.2831E-03
            6234            6228     26.9577E-03     26.8612E-03
            6235            6228     26.9577E-03     26.8612E-03
            6253            6228     26.9577E-03     26.8612E-03
            6252            6228     26.9577E-03     26.8612E-03
            6253            6229     29.5571E-03     29.4367E-03
            6236            6229     29.5571E-03     29.4367E-03
            6235            6229     29.5571E-03     29.4367E-03
            6254            6229     29.5571E-03     29.4367E-03
            6237            6230     32.0819E-03     31.9478E-03
            6254            6230     32.0819E-03     31.9478E-03
            6255            6230     32.0819E-03     31.9478E-03
            6236            6230     32.0819E-03     31.9478E-03
            6255            6231     34.4602E-03     34.3277E-03
            6237            6231     34.4602E-03     34.3277E-03
            6238            6231     34.4602E-03     34.3277E-03
            6256            6231     34.4602E-03     34.3277E-03
            6238            6232     36.5737E-03     36.4939E-03
            6256            6232     36.5737E-03     36.4939E-03
            6239            6232     36.5737E-03     36.4939E-03
            6257            6232     36.5737E-03     36.4939E-03
            6257            6233     38.2936E-03     38.3289E-03
            6258            6233     38.2936E-03     38.3289E-03
            6240            6233     38.2936E-03     38.3289E-03
            6239            6233     38.2936E-03     38.3289E-03
            6258            6234     39.4217E-03     39.6184E-03
            6241            6234     39.4217E-03     39.6184E-03
            6259            6234     39.4217E-03     39.6184E-03
            6240            6234     39.4217E-03     39.6184E-03
            6242            6235     40.1105E-03     40.2557E-03
            6260            6235     40.1105E-03     40.2557E-03
            6241            6235     40.1105E-03     40.2557E-03
            6259            6235     40.1105E-03     40.2557E-03
            6261            6236     11.7587E-03     13.5414E-03
            6262            6236     11.7587E-03     13.5414E-03
            6244            6236     11.7587E-03     13.5414E-03
            6243            6236     11.7587E-03     13.5414E-03
            6244            6237     12.4237E-03     13.4597E-03
            6245            6237     12.4237E-03     13.4597E-03
            6262            6237     12.4237E-03     13.4597E-03
            6263            6237     12.4237E-03     13.4597E-03
            6245            6238     13.5054E-03     13.8719E-03
            6246            6238     13.5054E-03     13.8719E-03
            6263            6238     13.5054E-03     13.8719E-03
            6264            6238     13.5054E-03     13.8719E-03
            6247            6239     14.7621E-03     14.8657E-03
            6246            6239     14.7621E-03     14.8657E-03
            6264            6239     14.7621E-03     14.8657E-03
            6265            6239     14.7621E-03     14.8657E-03
            6265            6240     16.2900E-03     16.2702E-03
            6266            6240     16.2900E-03     16.2702E-03
            6247            6240     16.2900E-03     16.2702E-03
            6248            6240     16.2900E-03     16.2702E-03
            6266            6241     18.0717E-03     17.9835E-03
            6249            6241     18.0717E-03     17.9835E-03
            6267            6241     18.0717E-03     17.9835E-03
            6248            6241     18.0717E-03     17.9835E-03
            6250            6242     20.0530E-03     19.9226E-03
            6267            6242     20.0530E-03     19.9226E-03
            6249            6242     20.0530E-03     19.9226E-03
            6268            6242     20.0530E-03     19.9226E-03
            6251            6243     22.1774E-03     22.0021E-03
            6268            6243     22.1774E-03     22.0021E-03
            6250            6243     22.1774E-03     22.0021E-03
            6269            6243     22.1774E-03     22.0021E-03
            6252            6244     24.3869E-03     24.1592E-03
            6251            6244     24.3869E-03     24.1592E-03
            6270            6244     24.3869E-03     24.1592E-03
            6269            6244     24.3869E-03     24.1592E-03
            6271            6245     26.6279E-03     26.3339E-03
            6253            6245     26.6279E-03     26.3339E-03
            6270            6245     26.6279E-03     26.3339E-03
            6252            6245     26.6279E-03     26.3339E-03
            6272            6246     28.8428E-03     28.4673E-03
            6254            6246     28.8428E-03     28.4673E-03
            6271            6246     28.8428E-03     28.4673E-03
            6253            6246     28.8428E-03     28.4673E-03
            6273            6247     30.9817E-03     30.5062E-03
            6255            6247     30.9817E-03     30.5062E-03
            6254            6247     30.9817E-03     30.5062E-03
            6272            6247     30.9817E-03     30.5062E-03
            6256            6248     32.9660E-03     32.3829E-03
            6274            6248     32.9660E-03     32.3829E-03
            6273            6248     32.9660E-03     32.3829E-03
            6255            6248     32.9660E-03     32.3829E-03
            6256            6249     34.7308E-03     34.0280E-03
            6275            6249     34.7308E-03     34.0280E-03
            6257            6249     34.7308E-03     34.0280E-03
            6274            6249     34.7308E-03     34.0280E-03
            6276            6250     36.1309E-03     35.3410E-03
            6275            6250     36.1309E-03     35.3410E-03
            6258            6250     36.1309E-03     35.3410E-03
            6257            6250     36.1309E-03     35.3410E-03
            6277            6251     36.9629E-03     36.1745E-03
            6258            6251     36.9629E-03     36.1745E-03
            6259            6251     36.9629E-03     36.1745E-03
            6276            6251     36.9629E-03     36.1745E-03
            6259            6252     36.8799E-03     36.0386E-03
            6260            6252     36.8799E-03     36.0386E-03
            6278            6252     36.8799E-03     36.0386E-03
            6277            6252     36.8799E-03     36.0386E-03
            6279            6253     10.6375E-03     11.6433E-03
            6261            6253     10.6375E-03     11.6433E-03
            6262            6253     10.6375E-03     11.6433E-03
            6280            6253     10.6375E-03     11.6433E-03
            6281            6254     10.2241E-03     10.3213E-03
            6262            6254     10.2241E-03     10.3213E-03
            6280            6254     10.2241E-03     10.3213E-03
            6263            6254     10.2241E-03     10.3213E-03
            6264            6255     10.3691E-03     10.3753E-03
            6282            6255     10.3691E-03     10.3753E-03
            6263            6255     10.3691E-03     10.3753E-03
            6281            6255     10.3691E-03     10.3753E-03
            6264            6256     11.0139E-03     11.1541E-03
            6283            6256     11.0139E-03     11.1541E-03
            6265            6256     11.0139E-03     11.1541E-03
            6282            6256     11.0139E-03     11.1541E-03
            6283            6257     12.0290E-03     12.2904E-03
            6284            6257     12.0290E-03     12.2904E-03
            6265            6257     12.0290E-03     12.2904E-03
            6266            6257     12.0290E-03     12.2904E-03
            6285            6258     13.3549E-03     13.7173E-03
            6284            6258     13.3549E-03     13.7173E-03
            6266            6258     13.3549E-03     13.7173E-03
            6267            6258     13.3549E-03     13.7173E-03
            6286            6259     14.8546E-03     15.2739E-03
            6285            6259     14.8546E-03     15.2739E-03
            6267            6259     14.8546E-03     15.2739E-03
            6268            6259     14.8546E-03     15.2739E-03
            6286            6260     16.4970E-03     16.9413E-03
            6268            6260     16.4970E-03     16.9413E-03
            6269            6260     16.4970E-03     16.9413E-03
            6287            6260     16.4970E-03     16.9413E-03
            6269            6261     18.2136E-03     18.6529E-03
            6287            6261     18.2136E-03     18.6529E-03
            6270            6261     18.2136E-03     18.6529E-03
            6288            6261     18.2136E-03     18.6529E-03
            6270            6262     19.9897E-03     20.4018E-03
            6289            6262     19.9897E-03     20.4018E-03
            6271            6262     19.9897E-03     20.4018E-03
            6288            6262     19.9897E-03     20.4018E-03
            6272            6263     21.8032E-03     22.1579E-03
            6271            6263     21.8032E-03     22.1579E-03
            6290            6263     21.8032E-03     22.1579E-03
            6289            6263     21.8032E-03     22.1579E-03
            6272            6264     23.6434E-03     23.9306E-03
            6290            6264     23.6434E-03     23.9306E-03
            6273            6264     23.6434E-03     23.9306E-03
            6291            6264     23.6434E-03     23.9306E-03
            6273            6265     25.5421E-03     25.7234E-03
            6291            6265     25.5421E-03     25.7234E-03
            6292            6265     25.5421E-03     25.7234E-03
            6274            6265     25.5421E-03     25.7234E-03
            6274            6266     27.4941E-03     27.5952E-03
            6292            6266     27.4941E-03     27.5952E-03
            6275            6266     27.4941E-03     27.5952E-03
            6293            6266     27.4941E-03     27.5952E-03
            6276            6267     29.6463E-03     29.6521E-03
            6275            6267     29.6463E-03     29.6521E-03
            6293            6267     29.6463E-03     29.6521E-03
            6294            6267     29.6463E-03     29.6521E-03
            6295            6268     32.0002E-03     32.0705E-03
            6277            6268     32.0002E-03     32.0705E-03
            6276            6268     32.0002E-03     32.0705E-03
            6294            6268     32.0002E-03     32.0705E-03
            6277            6269     35.5198E-03     36.3220E-03
            6278            6269     35.5198E-03     36.3220E-03
            6296            6269     35.5198E-03     36.3220E-03
            6295            6269     35.5198E-03     36.3220E-03
            6298            6270     9.63847E-03     8.91989E-03
            6279            6270     9.63847E-03     8.91989E-03
            6297            6270     9.63847E-03     8.91989E-03
            6280            6270     9.63847E-03     8.91989E-03
            6280            6271     7.90534E-03     7.41034E-03
            6281            6271     7.90534E-03     7.41034E-03
            6298            6271     7.90534E-03     7.41034E-03
            6299            6271     7.90534E-03     7.41034E-03
            6281            6272     7.01619E-03     6.87308E-03
            6299            6272     7.01619E-03     6.87308E-03
            6300            6272     7.01619E-03     6.87308E-03
            6282            6272     7.01619E-03     6.87308E-03
            6300            6273     7.08605E-03     7.31586E-03
            6283            6273     7.08605E-03     7.31586E-03
            6282            6273     7.08605E-03     7.31586E-03
            6301            6273     7.08605E-03     7.31586E-03
            6301            6274     7.64594E-03     8.18700E-03
            6283            6274     7.64594E-03     8.18700E-03
            6284            6274     7.64594E-03     8.18700E-03
            6302            6274     7.64594E-03     8.18700E-03
            6284            6275     8.57800E-03     9.33993E-03
            6285            6275     8.57800E-03     9.33993E-03
            6303            6275     8.57800E-03     9.33993E-03
            6302            6275     8.57800E-03     9.33993E-03
            6303            6276     9.71822E-03     10.6292E-03
            6304            6276     9.71822E-03     10.6292E-03
            6286            6276     9.71822E-03     10.6292E-03
            6285            6276     9.71822E-03     10.6292E-03
            6305            6277     11.0047E-03     12.0149E-03
            6304            6277     11.0047E-03     12.0149E-03
            6287            6277     11.0047E-03     12.0149E-03
            6286            6277     11.0047E-03     12.0149E-03
            6287            6278     12.3960E-03     13.4656E-03
            6288            6278     12.3960E-03     13.4656E-03
            6305            6278     12.3960E-03     13.4656E-03
            6306            6278     12.3960E-03     13.4656E-03
            6307            6279     13.8891E-03     14.9966E-03
            6289            6279     13.8891E-03     14.9966E-03
            6288            6279     13.8891E-03     14.9966E-03
            6306            6279     13.8891E-03     14.9966E-03
            6290            6280     15.4896E-03     16.6114E-03
            6289            6280     15.4896E-03     16.6114E-03
            6308            6280     15.4896E-03     16.6114E-03
            6307            6280     15.4896E-03     16.6114E-03
            6290            6281     17.2607E-03     18.3872E-03
            6291            6281     17.2607E-03     18.3872E-03
            6308            6281     17.2607E-03     18.3872E-03
            6309            6281     17.2607E-03     18.3872E-03
            6309            6282     19.2507E-03     20.3753E-03
            6310            6282     19.2507E-03     20.3753E-03
            6291            6282     19.2507E-03     20.3753E-03
            6292            6282     19.2507E-03     20.3753E-03
            6311            6283     21.6857E-03     22.8088E-03
            6292            6283     21.6857E-03     22.8088E-03
            6293            6283     21.6857E-03     22.8088E-03
            6310            6283     21.6857E-03     22.8088E-03
            6294            6284     24.6867E-03     25.8582E-03
            6293            6284     24.6867E-03     25.8582E-03
            6312            6284     24.6867E-03     25.8582E-03
            6311            6284     24.6867E-03     25.8582E-03
            6313            6285     29.1745E-03     30.3989E-03
            6294            6285     29.1745E-03     30.3989E-03
            6295            6285     29.1745E-03     30.3989E-03
            6312            6285     29.1745E-03     30.3989E-03
            6314            6286     36.3373E-03     37.3256E-03
            6295            6286     36.3373E-03     37.3256E-03
            6313            6286     36.3373E-03     37.3256E-03
            6296            6286     36.3373E-03     37.3256E-03
            6297            6287     8.71802E-03     8.09131E-03
            6316            6287     8.71802E-03     8.09131E-03
            6315            6287     8.71802E-03     8.09131E-03
            6298            6287     8.71802E-03     8.09131E-03
            6298            6288     8.29084E-03     7.83716E-03
            6316            6288     8.29084E-03     7.83716E-03
            6299            6288     8.29084E-03     7.83716E-03
            6317            6288     8.29084E-03     7.83716E-03
            6317            6289     7.90183E-03     7.72152E-03
            6299            6289     7.90183E-03     7.72152E-03
            6318            6289     7.90183E-03     7.72152E-03
            6300            6289     7.90183E-03     7.72152E-03
            6318            6290     8.03806E-03     8.15572E-03
            6319            6290     8.03806E-03     8.15572E-03
            6301            6290     8.03806E-03     8.15572E-03
            6300            6290     8.03806E-03     8.15572E-03
            6301            6291     8.64176E-03     9.01686E-03
            6319            6291     8.64176E-03     9.01686E-03
            6320            6291     8.64176E-03     9.01686E-03
            6302            6291     8.64176E-03     9.01686E-03
            6303            6292     9.51816E-03     10.0890E-03
            6302            6292     9.51816E-03     10.0890E-03
            6320            6292     9.51816E-03     10.0890E-03
            6321            6292     9.51816E-03     10.0890E-03
            6322            6293     10.6161E-03     11.3265E-03
            6321            6293     10.6161E-03     11.3265E-03
            6303            6293     10.6161E-03     11.3265E-03
            6304            6293     10.6161E-03     11.3265E-03
            6322            6294     11.8549E-03     12.6635E-03
            6304            6294     11.8549E-03     12.6635E-03
            6323            6294     11.8549E-03     12.6635E-03
            6305            6294     11.8549E-03     12.6635E-03
            6323            6295     13.2182E-03     14.0953E-03
            6324            6295     13.2182E-03     14.0953E-03
            6306            6295     13.2182E-03     14.0953E-03
            6305            6295     13.2182E-03     14.0953E-03
            6325            6296     14.6810E-03     15.6075E-03
            6307            6296     14.6810E-03     15.6075E-03
            6306            6296     14.6810E-03     15.6075E-03
            6324            6296     14.6810E-03     15.6075E-03
            6308            6297     16.2728E-03     17.2285E-03
            6326            6297     16.2728E-03     17.2285E-03
            6325            6297     16.2728E-03     17.2285E-03
            6307            6297     16.2728E-03     17.2285E-03
            6327            6298     18.0072E-03     18.9876E-03
            6308            6298     18.0072E-03     18.9876E-03
            6326            6298     18.0072E-03     18.9876E-03
            6309            6298     18.0072E-03     18.9876E-03
            6327            6299     20.0102E-03     20.9775E-03
            6310            6299     20.0102E-03     20.9775E-03
            6328            6299     20.0102E-03     20.9775E-03
            6309            6299     20.0102E-03     20.9775E-03
            6310            6300     22.3795E-03     23.3390E-03
            6328            6300     22.3795E-03     23.3390E-03
            6311            6300     22.3795E-03     23.3390E-03
            6329            6300     22.3795E-03     23.3390E-03
            6312            6301     25.4540E-03     26.3007E-03
            6311            6301     25.4540E-03     26.3007E-03
            6330            6301     25.4540E-03     26.3007E-03
            6329            6301     25.4540E-03     26.3007E-03
            6331            6302     29.9837E-03     30.4664E-03
            6330            6302     29.9837E-03     30.4664E-03
            6312            6302     29.9837E-03     30.4664E-03
            6313            6302     29.9837E-03     30.4664E-03
            6331            6303     35.0178E-03     35.0614E-03
            6313            6303     35.0178E-03     35.0614E-03
            6314            6303     35.0178E-03     35.0614E-03
            6332            6303     35.0178E-03     35.0614E-03
            6316            6304     8.15476E-03     7.44859E-03
            6334            6304     8.15476E-03     7.44859E-03
            6315            6304     8.15476E-03     7.44859E-03
            6333            6304     8.15476E-03     7.44859E-03
            6316            6305     8.19873E-03     7.70171E-03
            6334            6305     8.19873E-03     7.70171E-03
            6317            6305     8.19873E-03     7.70171E-03
            6335            6305     8.19873E-03     7.70171E-03
            6317            6306     8.42606E-03     8.19836E-03
            6318            6306     8.42606E-03     8.19836E-03
            6335            6306     8.42606E-03     8.19836E-03
            6336            6306     8.42606E-03     8.19836E-03
            6337            6307     8.80193E-03     8.83137E-03
            6318            6307     8.80193E-03     8.83137E-03
            6319            6307     8.80193E-03     8.83137E-03
            6336            6307     8.80193E-03     8.83137E-03
            6319            6308     9.45244E-03     9.70245E-03
            6338            6308     9.45244E-03     9.70245E-03
            6320            6308     9.45244E-03     9.70245E-03
            6337            6308     9.45244E-03     9.70245E-03
            6321            6309     10.3460E-03     10.7637E-03
            6339            6309     10.3460E-03     10.7637E-03
            6338            6309     10.3460E-03     10.7637E-03
            6320            6309     10.3460E-03     10.7637E-03
            6322            6310     11.4127E-03     11.9542E-03
            6340            6310     11.4127E-03     11.9542E-03
            6339            6310     11.4127E-03     11.9542E-03
            6321            6310     11.4127E-03     11.9542E-03
            6341            6311     12.6371E-03     13.2676E-03
            6340            6311     12.6371E-03     13.2676E-03
            6323            6311     12.6371E-03     13.2676E-03
            6322            6311     12.6371E-03     13.2676E-03
            6342            6312     13.9756E-03     14.6760E-03
            6341            6312     13.9756E-03     14.6760E-03
            6323            6312     13.9756E-03     14.6760E-03
            6324            6312     13.9756E-03     14.6760E-03
            6324            6313     15.4315E-03     16.1813E-03
            6325            6313     15.4315E-03     16.1813E-03
            6343            6313     15.4315E-03     16.1813E-03
            6342            6313     15.4315E-03     16.1813E-03
            6325            6314     16.9884E-03     17.7854E-03
            6326            6314     16.9884E-03     17.7854E-03
            6343            6314     16.9884E-03     17.7854E-03
            6344            6314     16.9884E-03     17.7854E-03
            6345            6315     18.6933E-03     19.5079E-03
            6326            6315     18.6933E-03     19.5079E-03
            6327            6315     18.6933E-03     19.5079E-03
            6344            6315     18.6933E-03     19.5079E-03
            6345            6316     20.5893E-03     21.4156E-03
            6346            6316     20.5893E-03     21.4156E-03
            6328            6316     20.5893E-03     21.4156E-03
            6327            6316     20.5893E-03     21.4156E-03
            6329            6317     22.7885E-03     23.5640E-03
            6328            6317     22.7885E-03     23.5640E-03
            6347            6317     22.7885E-03     23.5640E-03
            6346            6317     22.7885E-03     23.5640E-03
            6348            6318     25.6175E-03     26.2105E-03
            6347            6318     25.6175E-03     26.2105E-03
            6329            6318     25.6175E-03     26.2105E-03
            6330            6318     25.6175E-03     26.2105E-03
            6331            6319     28.8390E-03     29.3000E-03
            6348            6319     28.8390E-03     29.3000E-03
            6349            6319     28.8390E-03     29.3000E-03
            6330            6319     28.8390E-03     29.3000E-03
            6350            6320     32.0483E-03     32.6343E-03
            6349            6320     32.0483E-03     32.6343E-03
            6332            6320     32.0483E-03     32.6343E-03
            6331            6320     32.0483E-03     32.6343E-03
            6351            6321     8.01983E-03     7.32569E-03
            6333            6321     8.01983E-03     7.32569E-03
            6334            6321     8.01983E-03     7.32569E-03
            6352            6321     8.01983E-03     7.32569E-03
            6352            6322     8.30295E-03     7.79591E-03
            6353            6322     8.30295E-03     7.79591E-03
            6334            6322     8.30295E-03     7.79591E-03
            6335            6322     8.30295E-03     7.79591E-03
            6335            6323     8.77368E-03     8.51190E-03
            6353            6323     8.77368E-03     8.51190E-03
            6336            6323     8.77368E-03     8.51190E-03
            6354            6323     8.77368E-03     8.51190E-03
            6336            6324     9.39181E-03     9.36551E-03
            6355            6324     9.39181E-03     9.36551E-03
            6354            6324     9.39181E-03     9.36551E-03
            6337            6324     9.39181E-03     9.36551E-03
            6356            6325     10.1235E-03     10.2822E-03
            6355            6325     10.1235E-03     10.2822E-03
            6338            6325     10.1235E-03     10.2822E-03
            6337            6325     10.1235E-03     10.2822E-03
            6356            6326     11.0253E-03     11.3213E-03
            6338            6326     11.0253E-03     11.3213E-03
            6339            6326     11.0253E-03     11.3213E-03
            6357            6326     11.0253E-03     11.3213E-03
            6339            6327     12.0918E-03     12.4864E-03
            6340            6327     12.0918E-03     12.4864E-03
            6358            6327     12.0918E-03     12.4864E-03
            6357            6327     12.0918E-03     12.4864E-03
            6358            6328     13.2944E-03     13.7639E-03
            6340            6328     13.2944E-03     13.7639E-03
            6359            6328     13.2944E-03     13.7639E-03
            6341            6328     13.2944E-03     13.7639E-03
            6341            6329     14.6242E-03     15.1509E-03
            6342            6329     14.6242E-03     15.1509E-03
            6360            6329     14.6242E-03     15.1509E-03
            6359            6329     14.6242E-03     15.1509E-03
            6361            6330     16.0503E-03     16.6318E-03
            6342            6330     16.0503E-03     16.6318E-03
            6343            6330     16.0503E-03     16.6318E-03
            6360            6330     16.0503E-03     16.6318E-03
            6362            6331     17.5699E-03     18.1939E-03
            6344            6331     17.5699E-03     18.1939E-03
            6361            6331     17.5699E-03     18.1939E-03
            6343            6331     17.5699E-03     18.1939E-03
            6345            6332     19.1781E-03     19.8424E-03
            6363            6332     19.1781E-03     19.8424E-03
            6362            6332     19.1781E-03     19.8424E-03
            6344            6332     19.1781E-03     19.8424E-03
            6363            6333     20.8785E-03     21.5625E-03
            6364            6333     20.8785E-03     21.5625E-03
            6346            6333     20.8785E-03     21.5625E-03
            6345            6333     20.8785E-03     21.5625E-03
            6346            6334     22.7810E-03     23.4174E-03
            6365            6334     22.7810E-03     23.4174E-03
            6364            6334     22.7810E-03     23.4174E-03
            6347            6334     22.7810E-03     23.4174E-03
            6347            6335     24.8062E-03     25.4049E-03
            6365            6335     24.8062E-03     25.4049E-03
            6348            6335     24.8062E-03     25.4049E-03
            6366            6335     24.8062E-03     25.4049E-03
            6348            6336     26.9561E-03     27.4990E-03
            6349            6336     26.9561E-03     27.4990E-03
            6367            6336     26.9561E-03     27.4990E-03
            6366            6336     26.9561E-03     27.4990E-03
            6367            6337     29.4303E-03     29.7355E-03
            6349            6337     29.4303E-03     29.7355E-03
            6350            6337     29.4303E-03     29.7355E-03
            6368            6337     29.4303E-03     29.7355E-03
            6370            6338     8.07020E-03     7.41922E-03
            6351            6338     8.07020E-03     7.41922E-03
            6369            6338     8.07020E-03     7.41922E-03
            6352            6338     8.07020E-03     7.41922E-03
            6353            6339     8.58143E-03     8.11550E-03
            6370            6339     8.58143E-03     8.11550E-03
            6352            6339     8.58143E-03     8.11550E-03
            6371            6339     8.58143E-03     8.11550E-03
            6371            6340     9.19952E-03     8.95795E-03
            6353            6340     9.19952E-03     8.95795E-03
            6354            6340     9.19952E-03     8.95795E-03
            6372            6340     9.19952E-03     8.95795E-03
            6355            6341     9.88444E-03     9.83880E-03
            6372            6341     9.88444E-03     9.83880E-03
            6373            6341     9.88444E-03     9.83880E-03
            6354            6341     9.88444E-03     9.83880E-03
            6355            6342     10.6755E-03     10.7755E-03
            6374            6342     10.6755E-03     10.7755E-03
            6373            6342     10.6755E-03     10.7755E-03
            6356            6342     10.6755E-03     10.7755E-03
            6374            6343     11.5798E-03     11.7780E-03
            6375            6343     11.5798E-03     11.7780E-03
            6356            6343     11.5798E-03     11.7780E-03
            6357            6343     11.5798E-03     11.7780E-03
            6375            6344     12.6284E-03     12.8923E-03
            6357            6344     12.6284E-03     12.8923E-03
            6376            6344     12.6284E-03     12.8923E-03
            6358            6344     12.6284E-03     12.8923E-03
            6377            6345     13.8149E-03     14.1275E-03
            6358            6345     13.8149E-03     14.1275E-03
            6359            6345     13.8149E-03     14.1275E-03
            6376            6345     13.8149E-03     14.1275E-03
            6377            6346     15.1135E-03     15.4721E-03
            6378            6346     15.1135E-03     15.4721E-03
            6360            6346     15.1135E-03     15.4721E-03
            6359            6346     15.1135E-03     15.4721E-03
            6379            6347     16.5026E-03     16.9040E-03
            6360            6347     16.5026E-03     16.9040E-03
            6378            6347     16.5026E-03     16.9040E-03
            6361            6347     16.5026E-03     16.9040E-03
            6362            6348     17.9528E-03     18.4020E-03
            6380            6348     17.9528E-03     18.4020E-03
            6379            6348     17.9528E-03     18.4020E-03
            6361            6348     17.9528E-03     18.4020E-03
            6363            6349     19.4178E-03     19.9203E-03
            6380            6349     19.4178E-03     19.9203E-03
            6362            6349     19.4178E-03     19.9203E-03
            6381            6349     19.4178E-03     19.9203E-03
            6381            6350     20.8908E-03     21.4287E-03
            6364            6350     20.8908E-03     21.4287E-03
            6382            6350     20.8908E-03     21.4287E-03
            6363            6350     20.8908E-03     21.4287E-03
            6382            6351     22.2892E-03     22.8700E-03
            6383            6351     22.2892E-03     22.8700E-03
            6364            6351     22.2892E-03     22.8700E-03
            6365            6351     22.2892E-03     22.8700E-03
            6366            6352     23.6288E-03     24.1954E-03
            6384            6352     23.6288E-03     24.1954E-03
            6365            6352     23.6288E-03     24.1954E-03
            6383            6352     23.6288E-03     24.1954E-03
            6367            6353     25.0446E-03     25.4801E-03
            6384            6353     25.0446E-03     25.4801E-03
            6366            6353     25.0446E-03     25.4801E-03
            6385            6353     25.0446E-03     25.4801E-03
            6367            6354     26.6892E-03     27.0532E-03
            6386            6354     26.6892E-03     27.0532E-03
            6368            6354     26.6892E-03     27.0532E-03
            6385            6354     26.6892E-03     27.0532E-03
            6369            6355     8.30812E-03     7.71624E-03
            6387            6355     8.30812E-03     7.71624E-03
            6388            6355     8.30812E-03     7.71624E-03
            6370            6355     8.30812E-03     7.71624E-03
            6371            6356     8.97312E-03     8.60126E-03
            6389            6356     8.97312E-03     8.60126E-03
            6370            6356     8.97312E-03     8.60126E-03
            6388            6356     8.97312E-03     8.60126E-03
            6372            6357     9.66179E-03     9.48839E-03
            6390            6357     9.66179E-03     9.48839E-03
            6389            6357     9.66179E-03     9.48839E-03
            6371            6357     9.66179E-03     9.48839E-03
            6390            6358     10.3732E-03     10.3499E-03
            6372            6358     10.3732E-03     10.3499E-03
            6391            6358     10.3732E-03     10.3499E-03
            6373            6358     10.3732E-03     10.3499E-03
            6391            6359     11.1381E-03     11.2109E-03
            6373            6359     11.1381E-03     11.2109E-03
            6392            6359     11.1381E-03     11.2109E-03
            6374            6359     11.1381E-03     11.2109E-03
            6393            6360     12.0265E-03     12.1405E-03
            6392            6360     12.0265E-03     12.1405E-03
            6374            6360     12.0265E-03     12.1405E-03
            6375            6360     12.0265E-03     12.1405E-03
            6393            6361     13.0440E-03     13.1819E-03
            6375            6361     13.0440E-03     13.1819E-03
            6376            6361     13.0440E-03     13.1819E-03
            6394            6361     13.0440E-03     13.1819E-03
            6377            6362     14.1890E-03     14.3486E-03
            6394            6362     14.1890E-03     14.3486E-03
            6395            6362     14.1890E-03     14.3486E-03
            6376            6362     14.1890E-03     14.3486E-03
            6395            6363     15.4401E-03     15.6228E-03
            6377            6363     15.4401E-03     15.6228E-03
            6396            6363     15.4401E-03     15.6228E-03
            6378            6363     15.4401E-03     15.6228E-03
            6396            6364     16.7672E-03     16.9804E-03
            6397            6364     16.7672E-03     16.9804E-03
            6378            6364     16.7672E-03     16.9804E-03
            6379            6364     16.7672E-03     16.9804E-03
            6379            6365     18.1148E-03     18.3730E-03
            6380            6365     18.1148E-03     18.3730E-03
            6398            6365     18.1148E-03     18.3730E-03
            6397            6365     18.1148E-03     18.3730E-03
            6399            6366     19.4407E-03     19.7483E-03
            6380            6366     19.4407E-03     19.7483E-03
            6398            6366     19.4407E-03     19.7483E-03
            6381            6366     19.4407E-03     19.7483E-03
            6382            6367     20.6252E-03     21.0181E-03
            6381            6367     20.6252E-03     21.0181E-03
            6400            6367     20.6252E-03     21.0181E-03
            6399            6367     20.6252E-03     21.0181E-03
            6383            6368     21.5960E-03     22.0615E-03
            6401            6368     21.5960E-03     22.0615E-03
            6400            6368     21.5960E-03     22.0615E-03
            6382            6368     21.5960E-03     22.0615E-03
            6383            6369     22.3427E-03     22.8306E-03
            6401            6369     22.3427E-03     22.8306E-03
            6384            6369     22.3427E-03     22.8306E-03
            6402            6369     22.3427E-03     22.8306E-03
            6384            6370     22.9853E-03     23.4419E-03
            6403            6370     22.9853E-03     23.4419E-03
            6385            6370     22.9853E-03     23.4419E-03
            6402            6370     22.9853E-03     23.4419E-03
            6385            6371     24.0301E-03     24.2783E-03
            6403            6371     24.0301E-03     24.2783E-03
            6404            6371     24.0301E-03     24.2783E-03
            6386            6371     24.0301E-03     24.2783E-03
            6405            6372     8.65128E-03     8.22973E-03
            6406            6372     8.65128E-03     8.22973E-03
            6388            6372     8.65128E-03     8.22973E-03
            6387            6372     8.65128E-03     8.22973E-03
            6388            6373     9.45728E-03     9.21816E-03
            6389            6373     9.45728E-03     9.21816E-03
            6407            6373     9.45728E-03     9.21816E-03
            6406            6373     9.45728E-03     9.21816E-03
            6389            6374     10.1673E-03     10.1126E-03
            6407            6374     10.1673E-03     10.1126E-03
            6408            6374     10.1673E-03     10.1126E-03
            6390            6374     10.1673E-03     10.1126E-03
            6409            6375     10.8254E-03     10.8792E-03
            6391            6375     10.8254E-03     10.8792E-03
            6390            6375     10.8254E-03     10.8792E-03
            6408            6375     10.8254E-03     10.8792E-03
            6409            6376     11.5590E-03     11.6105E-03
            6392            6376     11.5590E-03     11.6105E-03
            6410            6376     11.5590E-03     11.6105E-03
            6391            6376     11.5590E-03     11.6105E-03
            6410            6377     12.4006E-03     12.4313E-03
            6393            6377     12.4006E-03     12.4313E-03
            6392            6377     12.4006E-03     12.4313E-03
            6411            6377     12.4006E-03     12.4313E-03
            6411            6378     13.3652E-03     13.3796E-03
            6394            6378     13.3652E-03     13.3796E-03
            6412            6378     13.3652E-03     13.3796E-03
            6393            6378     13.3652E-03     13.3796E-03
            6412            6379     14.4443E-03     14.4474E-03
            6394            6379     14.4443E-03     14.4474E-03
            6395            6379     14.4443E-03     14.4474E-03
            6413            6379     14.4443E-03     14.4474E-03
            6396            6380     15.6190E-03     15.6218E-03
            6413            6380     15.6190E-03     15.6218E-03
            6395            6380     15.6190E-03     15.6218E-03
            6414            6380     15.6190E-03     15.6218E-03
            6397            6381     16.8456E-03     16.8607E-03
            6415            6381     16.8456E-03     16.8607E-03
            6414            6381     16.8456E-03     16.8607E-03
            6396            6381     16.8456E-03     16.8607E-03
            6416            6382     18.0827E-03     18.1201E-03
            6415            6382     18.0827E-03     18.1201E-03
            6398            6382     18.0827E-03     18.1201E-03
            6397            6382     18.0827E-03     18.1201E-03
            6399            6383     19.2309E-03     19.3222E-03
            6398            6383     19.2309E-03     19.3222E-03
            6417            6383     19.2309E-03     19.3222E-03
            6416            6383     19.2309E-03     19.3222E-03
            6417            6384     20.2006E-03     20.3635E-03
            6418            6384     20.2006E-03     20.3635E-03
            6400            6384     20.2006E-03     20.3635E-03
            6399            6384     20.2006E-03     20.3635E-03
            6419            6385     20.8193E-03     21.1011E-03
            6401            6385     20.8193E-03     21.1011E-03
            6418            6385     20.8193E-03     21.1011E-03
            6400            6385     20.8193E-03     21.1011E-03
            6420            6386     20.9788E-03     21.3865E-03
            6402            6386     20.9788E-03     21.3865E-03
            6401            6386     20.9788E-03     21.3865E-03
            6419            6386     20.9788E-03     21.3865E-03
            6402            6387     20.9372E-03     21.3105E-03
            6421            6387     20.9372E-03     21.3105E-03
            6420            6387     20.9372E-03     21.3105E-03
            6403            6387     20.9372E-03     21.3105E-03
            6403            6388     21.2202E-03     21.4525E-03
            6421            6388     21.2202E-03     21.4525E-03
            6404            6388     21.2202E-03     21.4525E-03
            6422            6388     21.2202E-03     21.4525E-03
            6406            6389     9.12980E-03     8.83637E-03
            6424            6389     9.12980E-03     8.83637E-03
            6423            6389     9.12980E-03     8.83637E-03
            6405            6389     9.12980E-03     8.83637E-03
            6425            6390     10.0133E-03     10.0212E-03
            6407            6390     10.0133E-03     10.0212E-03
            6424            6390     10.0133E-03     10.0212E-03
            6406            6390     10.0133E-03     10.0212E-03
            6408            6391     10.6378E-03     10.8217E-03
            6426            6391     10.6378E-03     10.8217E-03
            6407            6391     10.6378E-03     10.8217E-03
            6425            6391     10.6378E-03     10.8217E-03
            6408            6392     11.2679E-03     11.3769E-03
            6409            6392     11.2679E-03     11.3769E-03
            6427            6392     11.2679E-03     11.3769E-03
            6426            6392     11.2679E-03     11.3769E-03
            6427            6393     11.9669E-03     11.9779E-03
            6428            6393     11.9669E-03     11.9779E-03
            6409            6393     11.9669E-03     11.9779E-03
            6410            6393     11.9669E-03     11.9779E-03
            6428            6394     12.7533E-03     12.6953E-03
            6429            6394     12.7533E-03     12.6953E-03
            6411            6394     12.7533E-03     12.6953E-03
            6410            6394     12.7533E-03     12.6953E-03
            6411            6395     13.6430E-03     13.5291E-03
            6430            6395     13.6430E-03     13.5291E-03
            6429            6395     13.6430E-03     13.5291E-03
            6412            6395     13.6430E-03     13.5291E-03
            6430            6396     14.6301E-03     14.4794E-03
            6412            6396     14.6301E-03     14.4794E-03
            6413            6396     14.6301E-03     14.4794E-03
            6431            6396     14.6301E-03     14.4794E-03
            6414            6397     15.6864E-03     15.5107E-03
            6432            6397     15.6864E-03     15.5107E-03
            6431            6397     15.6864E-03     15.5107E-03
            6413            6397     15.6864E-03     15.5107E-03
            6415            6398     16.7840E-03     16.5913E-03
            6414            6398     16.7840E-03     16.5913E-03
            6432            6398     16.7840E-03     16.5913E-03
            6433            6398     16.7840E-03     16.5913E-03
            6416            6399     17.8571E-03     17.6652E-03
            6433            6399     17.8571E-03     17.6652E-03
            6415            6399     17.8571E-03     17.6652E-03
            6434            6399     17.8571E-03     17.6652E-03
            6417            6400     18.8408E-03     18.6616E-03
            6434            6400     18.8408E-03     18.6616E-03
            6435            6400     18.8408E-03     18.6616E-03
            6416            6400     18.8408E-03     18.6616E-03
            6435            6401     19.5983E-03     19.4723E-03
            6418            6401     19.5983E-03     19.4723E-03
            6436            6401     19.5983E-03     19.4723E-03
            6417            6401     19.5983E-03     19.4723E-03
            6436            6402     19.9839E-03     19.9545E-03
            6419            6402     19.9839E-03     19.9545E-03
            6437            6402     19.9839E-03     19.9545E-03
            6418            6402     19.9839E-03     19.9545E-03
            6438            6403     19.7278E-03     19.8773E-03
            6420            6403     19.7278E-03     19.8773E-03
            6437            6403     19.7278E-03     19.8773E-03
            6419            6403     19.7278E-03     19.8773E-03
            6439            6404     18.8189E-03     19.1400E-03
            6420            6404     18.8189E-03     19.1400E-03
            6438            6404     18.8189E-03     19.1400E-03
            6421            6404     18.8189E-03     19.1400E-03
            6440            6405     18.2931E-03     18.4281E-03
            6439            6405     18.2931E-03     18.4281E-03
            6421            6405     18.2931E-03     18.4281E-03
            6422            6405     18.2931E-03     18.4281E-03
            6442            6406     9.66752E-03     9.91197E-03
            6423            6406     9.66752E-03     9.91197E-03
            6424            6406     9.66752E-03     9.91197E-03
            6441            6406     9.66752E-03     9.91197E-03
            6442            6407     10.4458E-03     10.9761E-03
            6443            6407     10.4458E-03     10.9761E-03
            6425            6407     10.4458E-03     10.9761E-03
            6424            6407     10.4458E-03     10.9761E-03
            6425            6408     11.1007E-03     11.4152E-03
            6426            6408     11.1007E-03     11.4152E-03
            6444            6408     11.1007E-03     11.4152E-03
            6443            6408     11.1007E-03     11.4152E-03
            6445            6409     11.7509E-03     11.8261E-03
            6426            6409     11.7509E-03     11.8261E-03
            6444            6409     11.7509E-03     11.8261E-03
            6427            6409     11.7509E-03     11.8261E-03
            6445            6410     12.4176E-03     12.3583E-03
            6428            6410     12.4176E-03     12.3583E-03
            6427            6410     12.4176E-03     12.3583E-03
            6446            6410     12.4176E-03     12.3583E-03
            6429            6411     13.1475E-03     12.9844E-03
            6428            6411     13.1475E-03     12.9844E-03
            6446            6411     13.1475E-03     12.9844E-03
            6447            6411     13.1475E-03     12.9844E-03
            6430            6412     13.9513E-03     13.7159E-03
            6429            6412     13.9513E-03     13.7159E-03
            6447            6412     13.9513E-03     13.7159E-03
            6448            6412     13.9513E-03     13.7159E-03
            6448            6413     14.8140E-03     14.5211E-03
            6431            6413     14.8140E-03     14.5211E-03
            6449            6413     14.8140E-03     14.5211E-03
            6430            6413     14.8140E-03     14.5211E-03
            6431            6414     15.7220E-03     15.3787E-03
            6449            6414     15.7220E-03     15.3787E-03
            6450            6414     15.7220E-03     15.3787E-03
            6432            6414     15.7220E-03     15.3787E-03
            6433            6415     16.6337E-03     16.2479E-03
            6450            6415     16.6337E-03     16.2479E-03
            6451            6415     16.6337E-03     16.2479E-03
            6432            6415     16.6337E-03     16.2479E-03
            6433            6416     17.5082E-03     17.0806E-03
            6451            6416     17.5082E-03     17.0806E-03
            6452            6416     17.5082E-03     17.0806E-03
            6434            6416     17.5082E-03     17.0806E-03
            6434            6417     18.2692E-03     17.8100E-03
            6435            6417     18.2692E-03     17.8100E-03
            6453            6417     18.2692E-03     17.8100E-03
            6452            6417     18.2692E-03     17.8100E-03
            6453            6418     18.8186E-03     18.3425E-03
            6436            6418     18.8186E-03     18.3425E-03
            6454            6418     18.8186E-03     18.3425E-03
            6435            6418     18.8186E-03     18.3425E-03
            6454            6419     18.9933E-03     18.5325E-03
            6436            6419     18.9933E-03     18.5325E-03
            6455            6419     18.9933E-03     18.5325E-03
            6437            6419     18.9933E-03     18.5325E-03
            6437            6420     18.5652E-03     18.1996E-03
            6438            6420     18.5652E-03     18.1996E-03
            6456            6420     18.5652E-03     18.1996E-03
            6455            6420     18.5652E-03     18.1996E-03
            6457            6421     17.0094E-03     16.9060E-03
            6439            6421     17.0094E-03     16.9060E-03
            6456            6421     17.0094E-03     16.9060E-03
            6438            6421     17.0094E-03     16.9060E-03
            6457            6422     15.1285E-03     15.1992E-03
            6458            6422     15.1285E-03     15.1992E-03
            6439            6422     15.1285E-03     15.1992E-03
            6440            6422     15.1285E-03     15.1992E-03
            6460            6423     9.97018E-03     10.9974E-03
            6459            6423     9.97018E-03     10.9974E-03
            6442            6423     9.97018E-03     10.9974E-03
            6441            6423     9.97018E-03     10.9974E-03
            6460            6424     10.9384E-03     11.5177E-03
            6442            6424     10.9384E-03     11.5177E-03
            6461            6424     10.9384E-03     11.5177E-03
            6443            6424     10.9384E-03     11.5177E-03
            6461            6425     11.6762E-03     11.8260E-03
            6443            6425     11.6762E-03     11.8260E-03
            6444            6425     11.6762E-03     11.8260E-03
            6462            6425     11.6762E-03     11.8260E-03
            6445            6426     12.3393E-03     12.2940E-03
            6463            6426     12.3393E-03     12.2940E-03
            6462            6426     12.3393E-03     12.2940E-03
            6444            6426     12.3393E-03     12.2940E-03
            6445            6427     12.9844E-03     12.8142E-03
            6446            6427     12.9844E-03     12.8142E-03
            6463            6427     12.9844E-03     12.8142E-03
            6464            6427     12.9844E-03     12.8142E-03
            6465            6428     13.6657E-03     13.4001E-03
            6464            6428     13.6657E-03     13.4001E-03
            6446            6428     13.6657E-03     13.4001E-03
            6447            6428     13.6657E-03     13.4001E-03
            6466            6429     14.3689E-03     14.0304E-03
            6465            6429     14.3689E-03     14.0304E-03
            6448            6429     14.3689E-03     14.0304E-03
            6447            6429     14.3689E-03     14.0304E-03
            6448            6430     15.0980E-03     14.6876E-03
            6466            6430     15.0980E-03     14.6876E-03
            6467            6430     15.0980E-03     14.6876E-03
            6449            6430     15.0980E-03     14.6876E-03
            6468            6431     15.8208E-03     15.3449E-03
            6449            6431     15.8208E-03     15.3449E-03
            6450            6431     15.8208E-03     15.3449E-03
            6467            6431     15.8208E-03     15.3449E-03
            6451            6432     16.5134E-03     15.9639E-03
            6468            6432     16.5134E-03     15.9639E-03
            6450            6432     16.5134E-03     15.9639E-03
            6469            6432     16.5134E-03     15.9639E-03
            6470            6433     17.1279E-03     16.5027E-03
            6452            6433     17.1279E-03     16.5027E-03
            6469            6433     17.1279E-03     16.5027E-03
            6451            6433     17.1279E-03     16.5027E-03
            6453            6434     17.6055E-03     16.8911E-03
            6452            6434     17.6055E-03     16.8911E-03
            6470            6434     17.6055E-03     16.8911E-03
            6471            6434     17.6055E-03     16.8911E-03
            6453            6435     17.8718E-03     17.0538E-03
            6471            6435     17.8718E-03     17.0538E-03
            6454            6435     17.8718E-03     17.0538E-03
            6472            6435     17.8718E-03     17.0538E-03
            6473            6436     17.7884E-03     16.8582E-03
            6455            6436     17.7884E-03     16.8582E-03
            6472            6436     17.7884E-03     16.8582E-03
            6454            6436     17.7884E-03     16.8582E-03
            6455            6437     17.1931E-03     16.1313E-03
            6474            6437     17.1931E-03     16.1313E-03
            6473            6437     17.1931E-03     16.1313E-03
            6456            6437     17.1931E-03     16.1313E-03
            6474            6438     15.6203E-03     14.4929E-03
            6475            6438     15.6203E-03     14.4929E-03
            6456            6438     15.6203E-03     14.4929E-03
            6457            6438     15.6203E-03     14.4929E-03
            6458            6439     12.4367E-03     11.4567E-03
            6457            6439     12.4367E-03     11.4567E-03
            6475            6439     12.4367E-03     11.4567E-03
            6476            6439     12.4367E-03     11.4567E-03
            6460            6440     9.50736E-03     9.89946E-03
            6459            6440     9.50736E-03     9.89946E-03
            6478            6440     9.50736E-03     9.89946E-03
            6477            6440     9.50736E-03     9.89946E-03
            6478            6441     10.1614E-03     10.2543E-03
            6479            6441     10.1614E-03     10.2543E-03
            6460            6441     10.1614E-03     10.2543E-03
            6461            6441     10.1614E-03     10.2543E-03
            6461            6442     10.5565E-03     10.5403E-03
            6462            6442     10.5565E-03     10.5403E-03
            6479            6442     10.5565E-03     10.5403E-03
            6480            6442     10.5565E-03     10.5403E-03
            6480            6443     10.9564E-03     10.9466E-03
            6463            6443     10.9564E-03     10.9466E-03
            6481            6443     10.9564E-03     10.9466E-03
            6462            6443     10.9564E-03     10.9466E-03
            6464            6444     11.2750E-03     11.2598E-03
            6463            6444     11.2750E-03     11.2598E-03
            6481            6444     11.2750E-03     11.2598E-03
            6482            6444     11.2750E-03     11.2598E-03
            6465            6445     11.6055E-03     11.5942E-03
            6464            6445     11.6055E-03     11.5942E-03
            6483            6445     11.6055E-03     11.5942E-03
            6482            6445     11.6055E-03     11.5942E-03
            6465            6446     11.9389E-03     11.9321E-03
            6466            6446     11.9389E-03     11.9321E-03
            6483            6446     11.9389E-03     11.9321E-03
            6484            6446     11.9389E-03     11.9321E-03
            6466            6447     12.2824E-03     12.2809E-03
            6467            6447     12.2824E-03     12.2809E-03
            6484            6447     12.2824E-03     12.2809E-03
            6485            6447     12.2824E-03     12.2809E-03
            6485            6448     12.6239E-03     12.6254E-03
            6486            6448     12.6239E-03     12.6254E-03
            6468            6448     12.6239E-03     12.6254E-03
            6467            6448     12.6239E-03     12.6254E-03
            6468            6449     12.9524E-03     12.9503E-03
            6487            6449     12.9524E-03     12.9503E-03
            6469            6449     12.9524E-03     12.9503E-03
            6486            6449     12.9524E-03     12.9503E-03
            6469            6450     13.2380E-03     13.2258E-03
            6487            6450     13.2380E-03     13.2258E-03
            6470            6450     13.2380E-03     13.2258E-03
            6488            6450     13.2380E-03     13.2258E-03
            6471            6451     13.4629E-03     13.4241E-03
            6489            6451     13.4629E-03     13.4241E-03
            6470            6451     13.4629E-03     13.4241E-03
            6488            6451     13.4629E-03     13.4241E-03
            6489            6452     13.5502E-03     13.4762E-03
            6490            6452     13.5502E-03     13.4762E-03
            6471            6452     13.5502E-03     13.4762E-03
            6472            6452     13.5502E-03     13.4762E-03
            6473            6453     13.4635E-03     13.3310E-03
            6491            6453     13.4635E-03     13.3310E-03
            6490            6453     13.4635E-03     13.3310E-03
            6472            6453     13.4635E-03     13.3310E-03
            6473            6454     13.0020E-03     12.8277E-03
            6492            6454     13.0020E-03     12.8277E-03
            6474            6454     13.0020E-03     12.8277E-03
            6491            6454     13.0020E-03     12.8277E-03
            6493            6455     12.4108E-03     12.1617E-03
            6475            6455     12.4108E-03     12.1617E-03
            6492            6455     12.4108E-03     12.1617E-03
            6474            6455     12.4108E-03     12.1617E-03
            6494            6456     11.9771E-03     12.0679E-03
            6493            6456     11.9771E-03     12.0679E-03
            6476            6456     11.9771E-03     12.0679E-03
            6475            6456     11.9771E-03     12.0679E-03
            6477            6457     8.69322E-03     8.43769E-03
            6496            6457     8.69322E-03     8.43769E-03
            6478            6457     8.69322E-03     8.43769E-03
            6495            6457     8.69322E-03     8.43769E-03
            6479            6458     9.22172E-03     9.10266E-03
            6497            6458     9.22172E-03     9.10266E-03
            6478            6458     9.22172E-03     9.10266E-03
            6496            6458     9.22172E-03     9.10266E-03
            6480            6459     9.33574E-03     9.31395E-03
            6479            6459     9.33574E-03     9.31395E-03
            6498            6459     9.33574E-03     9.31395E-03
            6497            6459     9.33574E-03     9.31395E-03
            6480            6460     9.40146E-03     9.48478E-03
            6499            6460     9.40146E-03     9.48478E-03
            6498            6460     9.40146E-03     9.48478E-03
            6481            6460     9.40146E-03     9.48478E-03
            6500            6461     9.38197E-03     9.53344E-03
            6481            6461     9.38197E-03     9.53344E-03
            6482            6461     9.38197E-03     9.53344E-03
            6499            6461     9.38197E-03     9.53344E-03
            6500            6462     9.38288E-03     9.60059E-03
            6482            6462     9.38288E-03     9.60059E-03
            6501            6462     9.38288E-03     9.60059E-03
            6483            6462     9.38288E-03     9.60059E-03
            6502            6463     9.39838E-03     9.67682E-03
            6501            6463     9.39838E-03     9.67682E-03
            6484            6463     9.39838E-03     9.67682E-03
            6483            6463     9.39838E-03     9.67682E-03
            6485            6464     9.43639E-03     9.78139E-03
            6484            6464     9.43639E-03     9.78139E-03
            6502            6464     9.43639E-03     9.78139E-03
            6503            6464     9.43639E-03     9.78139E-03
            6503            6465     9.50191E-03     9.90412E-03
            6485            6465     9.50191E-03     9.90412E-03
            6486            6465     9.50191E-03     9.90412E-03
            6504            6465     9.50191E-03     9.90412E-03
            6504            6466     9.58890E-03     10.0550E-03
            6487            6466     9.58890E-03     10.0550E-03
            6505            6466     9.58890E-03     10.0550E-03
            6486            6466     9.58890E-03     10.0550E-03
            6488            6467     9.70603E-03     10.2225E-03
            6487            6467     9.70603E-03     10.2225E-03
            6505            6467     9.70603E-03     10.2225E-03
            6506            6467     9.70603E-03     10.2225E-03
            6506            6468     9.84570E-03     10.4169E-03
            6488            6468     9.84570E-03     10.4169E-03
            6489            6468     9.84570E-03     10.4169E-03
            6507            6468     9.84570E-03     10.4169E-03
            6490            6469     9.98458E-03     10.6052E-03
            6489            6469     9.98458E-03     10.6052E-03
            6508            6469     9.98458E-03     10.6052E-03
            6507            6469     9.98458E-03     10.6052E-03
            6508            6470     10.1360E-03     10.8115E-03
            6491            6470     10.1360E-03     10.8115E-03
            6509            6470     10.1360E-03     10.8115E-03
            6490            6470     10.1360E-03     10.8115E-03
            6509            6471     10.0384E-03     10.8564E-03
            6510            6471     10.0384E-03     10.8564E-03
            6492            6471     10.0384E-03     10.8564E-03
            6491            6471     10.0384E-03     10.8564E-03
            6493            6472     10.3358E-03     11.1740E-03
            6511            6472     10.3358E-03     11.1740E-03
            6510            6472     10.3358E-03     11.1740E-03
            6492            6472     10.3358E-03     11.1740E-03
            6494            6473     11.9480E-03     12.8322E-03
            6512            6473     11.9480E-03     12.8322E-03
            6511            6473     11.9480E-03     12.8322E-03
            6493            6473     11.9480E-03     12.8322E-03
            6514            6474     8.35282E-03     7.81830E-03
            6513            6474     8.35282E-03     7.81830E-03
            6495            6474     8.35282E-03     7.81830E-03
            6496            6474     8.35282E-03     7.81830E-03
            6496            6475     9.47369E-03     9.32733E-03
            6515            6475     9.47369E-03     9.32733E-03
            6497            6475     9.47369E-03     9.32733E-03
            6514            6475     9.47369E-03     9.32733E-03
            6515            6476     9.69657E-03     9.72470E-03
            6498            6476     9.69657E-03     9.72470E-03
            6516            6476     9.69657E-03     9.72470E-03
            6497            6476     9.69657E-03     9.72470E-03
            6516            6477     9.67571E-03     9.70749E-03
            6498            6477     9.67571E-03     9.70749E-03
            6499            6477     9.67571E-03     9.70749E-03
            6517            6477     9.67571E-03     9.70749E-03
            6518            6478     9.65615E-03     9.70744E-03
            6517            6478     9.65615E-03     9.70744E-03
            6499            6478     9.65615E-03     9.70744E-03
            6500            6478     9.65615E-03     9.70744E-03
            6519            6479     9.64891E-03     9.72440E-03
            6518            6479     9.64891E-03     9.72440E-03
            6500            6479     9.64891E-03     9.72440E-03
            6501            6479     9.64891E-03     9.72440E-03
            6520            6480     9.67934E-03     9.77924E-03
            6501            6480     9.67934E-03     9.77924E-03
            6502            6480     9.67934E-03     9.77924E-03
            6519            6480     9.67934E-03     9.77924E-03
            6503            6481     9.73474E-03     9.85615E-03
            6520            6481     9.73474E-03     9.85615E-03
            6502            6481     9.73474E-03     9.85615E-03
            6521            6481     9.73474E-03     9.85615E-03
            6521            6482     9.81279E-03     9.95843E-03
            6522            6482     9.81279E-03     9.95843E-03
            6503            6482     9.81279E-03     9.95843E-03
            6504            6482     9.81279E-03     9.95843E-03
            6522            6483     9.91422E-03     10.0794E-03
            6523            6483     9.91422E-03     10.0794E-03
            6504            6483     9.91422E-03     10.0794E-03
            6505            6483     9.91422E-03     10.0794E-03
            6523            6484     10.0440E-03     10.2316E-03
            6505            6484     10.0440E-03     10.2316E-03
            6506            6484     10.0440E-03     10.2316E-03
            6524            6484     10.0440E-03     10.2316E-03
            6524            6485     10.2108E-03     10.4173E-03
            6525            6485     10.2108E-03     10.4173E-03
            6506            6485     10.2108E-03     10.4173E-03
            6507            6485     10.2108E-03     10.4173E-03
            6507            6486     10.4398E-03     10.6624E-03
            6525            6486     10.4398E-03     10.6624E-03
            6508            6486     10.4398E-03     10.6624E-03
            6526            6486     10.4398E-03     10.6624E-03
            6526            6487     10.6933E-03     10.9334E-03
            6508            6487     10.6933E-03     10.9334E-03
            6527            6487     10.6933E-03     10.9334E-03
            6509            6487     10.6933E-03     10.9334E-03
            6528            6488     10.9027E-03     11.1508E-03
            6527            6488     10.9027E-03     11.1508E-03
            6510            6488     10.9027E-03     11.1508E-03
            6509            6488     10.9027E-03     11.1508E-03
            6528            6489     10.4043E-03     10.8358E-03
            6529            6489     10.4043E-03     10.8358E-03
            6510            6489     10.4043E-03     10.8358E-03
            6511            6489     10.4043E-03     10.8358E-03
            6529            6490     9.14243E-03     9.27221E-03
            6512            6490     9.14243E-03     9.27221E-03
            6511            6490     9.14243E-03     9.27221E-03
            6530            6490     9.14243E-03     9.27221E-03
            6514            6491     8.32530E-03     7.84470E-03
            6532            6491     8.32530E-03     7.84470E-03
            6531            6491     8.32530E-03     7.84470E-03
            6513            6491     8.32530E-03     7.84470E-03
            6514            6492     9.48140E-03     9.41951E-03
            6532            6492     9.48140E-03     9.41951E-03
            6533            6492     9.48140E-03     9.41951E-03
            6515            6492     9.48140E-03     9.41951E-03
            6516            6493     9.82035E-03     9.85495E-03
            6533            6493     9.82035E-03     9.85495E-03
            6515            6493     9.82035E-03     9.85495E-03
            6534            6493     9.82035E-03     9.85495E-03
            6534            6494     9.86754E-03     9.84934E-03
            6517            6494     9.86754E-03     9.84934E-03
            6535            6494     9.86754E-03     9.84934E-03
            6516            6494     9.86754E-03     9.84934E-03
            6535            6495     9.88563E-03     9.84671E-03
            6518            6495     9.88563E-03     9.84671E-03
            6517            6495     9.88563E-03     9.84671E-03
            6536            6495     9.88563E-03     9.84671E-03
            6537            6496     9.91557E-03     9.85816E-03
            6519            6496     9.91557E-03     9.85816E-03
            6536            6496     9.91557E-03     9.85816E-03
            6518            6496     9.91557E-03     9.85816E-03
            6520            6497     9.96970E-03     9.89698E-03
            6537            6497     9.96970E-03     9.89698E-03
            6538            6497     9.96970E-03     9.89698E-03
            6519            6497     9.96970E-03     9.89698E-03
            6520            6498     10.0455E-03     9.95522E-03
            6521            6498     10.0455E-03     9.95522E-03
            6539            6498     10.0455E-03     9.95522E-03
            6538            6498     10.0455E-03     9.95522E-03
            6521            6499     10.1347E-03     10.0290E-03
            6522            6499     10.1347E-03     10.0290E-03
            6539            6499     10.1347E-03     10.0290E-03
            6540            6499     10.1347E-03     10.0290E-03
            6522            6500     10.2431E-03     10.1202E-03
            6540            6500     10.2431E-03     10.1202E-03
            6523            6500     10.2431E-03     10.1202E-03
            6541            6500     10.2431E-03     10.1202E-03
            6541            6501     10.3695E-03     10.2313E-03
            6523            6501     10.3695E-03     10.2313E-03
            6542            6501     10.3695E-03     10.2313E-03
            6524            6501     10.3695E-03     10.2313E-03
            6525            6502     10.5311E-03     10.3763E-03
            6542            6502     10.5311E-03     10.3763E-03
            6524            6502     10.5311E-03     10.3763E-03
            6543            6502     10.5311E-03     10.3763E-03
            6526            6503     10.7420E-03     10.5745E-03
            6543            6503     10.7420E-03     10.5745E-03
            6544            6503     10.7420E-03     10.5745E-03
            6525            6503     10.7420E-03     10.5745E-03
            6545            6504     10.9616E-03     10.7599E-03
            6526            6504     10.9616E-03     10.7599E-03
            6544            6504     10.9616E-03     10.7599E-03
            6527            6504     10.9616E-03     10.7599E-03
            6545            6505     11.1183E-03     10.8721E-03
            6546            6505     11.1183E-03     10.8721E-03
            6528            6505     11.1183E-03     10.8721E-03
            6527            6505     11.1183E-03     10.8721E-03
            6546            6506     9.77463E-03     9.83477E-03
            6547            6506     9.77463E-03     9.83477E-03
            6528            6506     9.77463E-03     9.83477E-03
            6529            6506     9.77463E-03     9.83477E-03
            6530            6507     5.72091E-03     6.31612E-03
            6529            6507     5.72091E-03     6.31612E-03
            6548            6507     5.72091E-03     6.31612E-03
            6547            6507     5.72091E-03     6.31612E-03
            6531            6508     8.44084E-03     8.52303E-03
            6549            6508     8.44084E-03     8.52303E-03
            6532            6508     8.44084E-03     8.52303E-03
            6550            6508     8.44084E-03     8.52303E-03
            6551            6509     9.37511E-03     9.42529E-03
            6550            6509     9.37511E-03     9.42529E-03
            6532            6509     9.37511E-03     9.42529E-03
            6533            6509     9.37511E-03     9.42529E-03
            6534            6510     9.76330E-03     9.73210E-03
            6533            6510     9.76330E-03     9.73210E-03
            6552            6510     9.76330E-03     9.73210E-03
            6551            6510     9.76330E-03     9.73210E-03
            6535            6511     9.99357E-03     9.92457E-03
            6534            6511     9.99357E-03     9.92457E-03
            6552            6511     9.99357E-03     9.92457E-03
            6553            6511     9.99357E-03     9.92457E-03
            6536            6512     10.0969E-03     9.97143E-03
            6535            6512     10.0969E-03     9.97143E-03
            6554            6512     10.0969E-03     9.97143E-03
            6553            6512     10.0969E-03     9.97143E-03
            6537            6513     10.1914E-03     10.0109E-03
            6536            6513     10.1914E-03     10.0109E-03
            6554            6513     10.1914E-03     10.0109E-03
            6555            6513     10.1914E-03     10.0109E-03
            6538            6514     10.2822E-03     10.0439E-03
            6537            6514     10.2822E-03     10.0439E-03
            6556            6514     10.2822E-03     10.0439E-03
            6555            6514     10.2822E-03     10.0439E-03
            6556            6515     10.3756E-03     10.0856E-03
            6557            6515     10.3756E-03     10.0856E-03
            6538            6515     10.3756E-03     10.0856E-03
            6539            6515     10.3756E-03     10.0856E-03
            6557            6516     10.4797E-03     10.1328E-03
            6539            6516     10.4797E-03     10.1328E-03
            6558            6516     10.4797E-03     10.1328E-03
            6540            6516     10.4797E-03     10.1328E-03
            6541            6517     10.5855E-03     10.1890E-03
            6540            6517     10.5855E-03     10.1890E-03
            6558            6517     10.5855E-03     10.1890E-03
            6559            6517     10.5855E-03     10.1890E-03
            6560            6518     10.7007E-03     10.2488E-03
            6559            6518     10.7007E-03     10.2488E-03
            6541            6518     10.7007E-03     10.2488E-03
            6542            6518     10.7007E-03     10.2488E-03
            6543            6519     10.8142E-03     10.3077E-03
            6542            6519     10.8142E-03     10.3077E-03
            6561            6519     10.8142E-03     10.3077E-03
            6560            6519     10.8142E-03     10.3077E-03
            6544            6520     10.8956E-03     10.3390E-03
            6543            6520     10.8956E-03     10.3390E-03
            6561            6520     10.8956E-03     10.3390E-03
            6562            6520     10.8956E-03     10.3390E-03
            6545            6521     10.9067E-03     10.2803E-03
            6544            6521     10.9067E-03     10.2803E-03
            6563            6521     10.9067E-03     10.2803E-03
            6562            6521     10.9067E-03     10.2803E-03
            6546            6522     10.4323E-03     9.79626E-03
            6545            6522     10.4323E-03     9.79626E-03
            6563            6522     10.4323E-03     9.79626E-03
            6564            6522     10.4323E-03     9.79626E-03
            6547            6523     9.11812E-03     8.43106E-03
            6546            6523     9.11812E-03     8.43106E-03
            6565            6523     9.11812E-03     8.43106E-03
            6564            6523     9.11812E-03     8.43106E-03
            6547            6524     5.27908E-03     5.81036E-03
            6565            6524     5.27908E-03     5.81036E-03
            6548            6524     5.27908E-03     5.81036E-03
            6566            6524     5.27908E-03     5.81036E-03


  Minimum                            89.9879E-06     206.395E-06
      At Element                            2325            5156
            Node                              40             768

  Maximum                            94.9319E-03     100.953E-03
      At Element                            3428            4049
            Node                             182             570

           Total                         214.657         219.142


Field Output reported at element nodes for region: A320-1.Region_2
   Computation algorithm: EXTRAPOLATE_COMPUTE_AVERAGE
   Averaged at nodes
   Averaging regions: ODB_REGIONS

   Element Label      Node Label         S.Mises         S.Mises
                                          @Loc 1          @Loc 2
-----------------------------------------------------------------
            2235               3     7.78058E-03     7.93661E-03
            1793               3     7.78058E-03     7.93661E-03
            2262               4     799.683E-06     798.528E-06
            3913               6     71.9245E-03     69.1782E-03
            2234               6     71.9245E-03     69.1782E-03
            3958               8     92.2521E-03     83.1010E-03
            3859               8     92.2521E-03     83.1010E-03
            3904              10     75.5382E-03     72.7720E-03
            5387              10     75.5382E-03     72.7720E-03
            5325              13     8.65453E-03     8.70528E-03
            5730              13     8.65453E-03     8.70528E-03
            5370              14     801.015E-06     806.412E-06
            5738              15     8.47586E-03     8.41926E-03
            5333              15     8.47586E-03     8.41926E-03
            1785              17     7.35849E-03     7.36173E-03
            2243              17     7.35849E-03     7.36173E-03
            2270              18     799.683E-06     798.528E-06
            2226              21     89.3949E-03     85.0572E-03
            3905              21     89.3949E-03     85.0572E-03
            3851              22     73.3785E-03     87.8604E-03
            3950              22     73.3785E-03     87.8604E-03
            3896              25     64.5286E-03     59.4442E-03
            5379              25     64.5286E-03     59.4442E-03
            5378              27     801.015E-06     806.412E-06
            2235              38     943.637E-06     934.977E-06
            2244              38     943.637E-06     934.977E-06
            2244              39     775.008E-06     783.984E-06
            2253              39     775.008E-06     783.984E-06
            2262              40     763.122E-06     767.976E-06
            2253              40     763.122E-06     767.976E-06
            2225             102     72.1297E-03     69.8499E-03
            2234             102     72.1297E-03     69.8499E-03
            2225             103     69.3607E-03     69.5276E-03
            2216             103     69.3607E-03     69.5276E-03
            2207             104     67.4648E-03     66.9876E-03
            2216             104     67.4648E-03     66.9876E-03
            2207             105     66.1429E-03     65.5947E-03
            2198             105     66.1429E-03     65.5947E-03
            2198             106     64.5263E-03     63.8541E-03
            2189             106     64.5263E-03     63.8541E-03
            2189             107     62.8160E-03     62.4840E-03
            2180             107     62.8160E-03     62.4840E-03
            2180             108     60.9232E-03     60.5536E-03
            2171             108     60.9232E-03     60.5536E-03
            2162             109     58.5269E-03     59.4826E-03
            2171             109     58.5269E-03     59.4826E-03
            2162             110     56.2904E-03     53.4881E-03
            2153             110     56.2904E-03     53.4881E-03
            2153             111     60.6949E-03     54.3770E-03
            2144             111     60.6949E-03     54.3770E-03
            2144             112     64.2022E-03     62.2676E-03
            2135             112     64.2022E-03     62.2676E-03
            2126             113     60.7983E-03     60.7960E-03
            2135             113     60.7983E-03     60.7960E-03
            2117             114     58.4118E-03     57.9743E-03
            2126             114     58.4118E-03     57.9743E-03
            2117             115     56.7188E-03     56.0941E-03
            2108             115     56.7188E-03     56.0941E-03
            2108             116     54.7268E-03     54.1377E-03
            2099             116     54.7268E-03     54.1377E-03
            2090             117     52.8629E-03     52.2637E-03
            2099             117     52.8629E-03     52.2637E-03
            2081             118     50.8196E-03     50.4948E-03
            2090             118     50.8196E-03     50.4948E-03
            2081             119     48.6669E-03     48.4082E-03
            2072             119     48.6669E-03     48.4082E-03
            2072             120     45.9115E-03     46.8079E-03
            2063             120     45.9115E-03     46.8079E-03
            2063             121     43.1495E-03     40.8321E-03
            2054             121     43.1495E-03     40.8321E-03
            2054             122     48.2331E-03     43.2137E-03
            2045             122     48.2331E-03     43.2137E-03
            2045             123     52.3895E-03     50.9711E-03
            2036             123     52.3895E-03     50.9711E-03
            2036             124     48.4101E-03     48.2960E-03
            2027             124     48.4101E-03     48.2960E-03
            2027             125     45.5360E-03     45.1961E-03
            2018             125     45.5360E-03     45.1961E-03
            2018             126     43.4420E-03     42.9452E-03
            2009             126     43.4420E-03     42.9452E-03
            2009             127     41.1024E-03     40.6830E-03
            2000             127     41.1024E-03     40.6830E-03
            1991             128     38.9157E-03     38.5000E-03
            2000             128     38.9157E-03     38.5000E-03
            1982             129     36.5529E-03     36.3988E-03
            1991             129     36.5529E-03     36.3988E-03
            1982             130     34.1290E-03     34.0521E-03
            1973             130     34.1290E-03     34.0521E-03
            1973             131     31.0704E-03     31.9808E-03
            1964             131     31.0704E-03     31.9808E-03
            1955             132     27.8357E-03     26.2209E-03
            1964             132     27.8357E-03     26.2209E-03
            1955             133     33.4646E-03     30.1020E-03
            1946             133     33.4646E-03     30.1020E-03
            1946             134     38.2104E-03     37.4236E-03
            1937             134     38.2104E-03     37.4236E-03
            1928             135     33.7311E-03     33.5644E-03
            1937             135     33.7311E-03     33.5644E-03
            1919             136     30.4492E-03     30.2732E-03
            1928             136     30.4492E-03     30.2732E-03
            1919             137     28.0369E-03     27.7315E-03
            1910             137     28.0369E-03     27.7315E-03
            1910             138     25.4683E-03     25.2764E-03
            1901             138     25.4683E-03     25.2764E-03
            1892             139     23.1026E-03     22.9365E-03
            1901             139     23.1026E-03     22.9365E-03
            1883             140     20.6373E-03     20.7107E-03
            1892             140     20.6373E-03     20.7107E-03
            1883             141     18.2114E-03     18.4305E-03
            1874             141     18.2114E-03     18.4305E-03
            1865             142     15.4637E-03     16.4172E-03
            1874             142     15.4637E-03     16.4172E-03
            1856             143     13.0674E-03     12.8984E-03
            1865             143     13.0674E-03     12.8984E-03
            1847             144     17.8348E-03     16.8090E-03
            1856             144     17.8348E-03     16.8090E-03
            1838             145     21.0854E-03     20.9703E-03
            1847             145     21.0854E-03     20.9703E-03
            1829             146     16.5645E-03     16.6053E-03
            1838             146     16.5645E-03     16.6053E-03
            1820             147     13.6381E-03     13.9191E-03
            1829             147     13.6381E-03     13.9191E-03
            1811             148     12.0182E-03     12.3446E-03
            1820             148     12.0182E-03     12.3446E-03
            1811             149     11.5387E-03     12.0149E-03
            1802             149     11.5387E-03     12.0149E-03
            1802             150     13.2239E-03     13.6097E-03
            1793             150     13.2239E-03     13.6097E-03
            3958             162     85.9918E-03     81.2200E-03
            3949             162     85.9918E-03     81.2200E-03
            3940             163     81.8383E-03     82.2928E-03
            3949             163     81.8383E-03     82.2928E-03
            3940             164     79.3739E-03     80.5560E-03
            3931             164     79.3739E-03     80.5560E-03
            3922             165     76.5144E-03     77.1179E-03
            3931             165     76.5144E-03     77.1179E-03
            3922             166     72.2995E-03     71.6604E-03
            3913             166     72.2995E-03     71.6604E-03
            3904             178     79.7824E-03     77.7749E-03
            3895             178     79.7824E-03     77.7749E-03
            3886             179     83.0972E-03     83.9180E-03
            3895             179     83.0972E-03     83.9180E-03
            3886             180     85.4479E-03     85.4770E-03
            3877             180     85.4479E-03     85.4770E-03
            3868             181     88.9049E-03     89.3039E-03
            3877             181     88.9049E-03     89.3039E-03
            3859             182     93.6688E-03     90.2541E-03
            3868             182     93.6688E-03     90.2541E-03
            5325             194     1.18535E-03     1.16306E-03
            5334             194     1.18535E-03     1.16306E-03
            5334             195     915.744E-06     919.222E-06
            5343             195     915.744E-06     919.222E-06
            5343             196     755.343E-06     763.642E-06
            5352             196     755.343E-06     763.642E-06
            5352             197     693.453E-06     710.381E-06
            5361             197     693.453E-06     710.381E-06
            5370             198     741.516E-06     755.317E-06
            5361             198     741.516E-06     755.317E-06
            5738             250     14.8180E-03     14.7644E-03
            5729             250     14.8180E-03     14.7644E-03
            5720             251     13.9864E-03     13.9645E-03
            5729             251     13.9864E-03     13.9645E-03
            5720             252     15.9288E-03     15.8591E-03
            5711             252     15.9288E-03     15.8591E-03
            5711             253     20.6407E-03     20.1025E-03
            5702             253     20.6407E-03     20.1025E-03
            5702             254     17.7130E-03     17.1454E-03
            5693             254     17.7130E-03     17.1454E-03
            5693             255     13.6287E-03     14.0406E-03
            5684             255     13.6287E-03     14.0406E-03
            5684             256     16.6926E-03     17.3311E-03
            5675             256     16.6926E-03     17.3311E-03
            5666             257     19.6599E-03     19.8214E-03
            5675             257     19.6599E-03     19.8214E-03
            5666             258     22.5817E-03     22.4668E-03
            5657             258     22.5817E-03     22.4668E-03
            5657             259     25.4668E-03     25.1876E-03
            5648             259     25.4668E-03     25.1876E-03
            5648             260     28.3465E-03     27.9569E-03
            5639             260     28.3465E-03     27.9569E-03
            5639             261     31.3898E-03     30.9399E-03
            5630             261     31.3898E-03     30.9399E-03
            5630             262     34.3929E-03     33.9273E-03
            5621             262     34.3929E-03     33.9273E-03
            5621             263     38.2532E-03     38.0157E-03
            5612             263     38.2532E-03     38.0157E-03
            5603             264     43.9929E-03     42.5028E-03
            5612             264     43.9929E-03     42.5028E-03
            5594             265     39.2957E-03     36.0890E-03
            5603             265     39.2957E-03     36.0890E-03
            5585             266     33.8038E-03     32.7465E-03
            5594             266     33.8038E-03     32.7465E-03
            5576             267     38.1260E-03     38.6488E-03
            5585             267     38.1260E-03     38.6488E-03
            5567             268     41.5664E-03     41.3681E-03
            5576             268     41.5664E-03     41.3681E-03
            5567             269     44.6595E-03     44.2318E-03
            5558             269     44.6595E-03     44.2318E-03
            5549             270     47.5154E-03     46.8189E-03
            5558             270     47.5154E-03     46.8189E-03
            5549             271     50.2387E-03     49.5265E-03
            5540             271     50.2387E-03     49.5265E-03
            5531             272     52.9503E-03     52.1242E-03
            5540             272     52.9503E-03     52.1242E-03
            5522             273     55.7344E-03     54.9570E-03
            5531             273     55.7344E-03     54.9570E-03
            5522             274     58.3689E-03     57.6109E-03
            5513             274     58.3689E-03     57.6109E-03
            5504             275     61.8729E-03     61.6167E-03
            5513             275     61.8729E-03     61.6167E-03
            5504             276     67.3479E-03     64.8658E-03
            5495             276     67.3479E-03     64.8658E-03
            5486             277     63.2273E-03     57.7619E-03
            5495             277     63.2273E-03     57.7619E-03
            5486             278     58.0056E-03     55.9512E-03
            5477             278     58.0056E-03     55.9512E-03
            5468             279     61.6773E-03     62.1107E-03
            5477             279     61.6773E-03     62.1107E-03
            5468             280     64.8046E-03     64.3538E-03
            5459             280     64.8046E-03     64.3538E-03
            5459             281     67.7327E-03     66.9775E-03
            5450             281     67.7327E-03     66.9775E-03
            5450             282     70.3210E-03     69.3700E-03
            5441             282     70.3210E-03     69.3700E-03
            5441             283     72.7753E-03     71.7317E-03
            5432             283     72.7753E-03     71.7317E-03
            5423             284     75.2708E-03     74.2386E-03
            5432             284     75.2708E-03     74.2386E-03
            5414             285     77.4899E-03     76.5395E-03
            5423             285     77.4899E-03     76.5395E-03
            5414             286     80.5711E-03     80.3348E-03
            5405             286     80.5711E-03     80.3348E-03
            5396             287     85.6791E-03     82.4080E-03
            5405             287     85.6791E-03     82.4080E-03
            5387             288     81.1223E-03     77.4072E-03
            5396             288     81.1223E-03     77.4072E-03
            2243             306     943.637E-06     934.977E-06
            2252             306     943.637E-06     934.977E-06
            2252             307     775.008E-06     783.984E-06
            2261             307     775.008E-06     783.984E-06
            2261             308     763.122E-06     767.976E-06
            2270             308     763.122E-06     767.976E-06
            1786             424     8.17685E-03     8.21488E-03
            2242             424     8.17685E-03     8.21488E-03
            2243             424     8.17685E-03     8.21488E-03
            1785             424     8.17685E-03     8.21488E-03
            1787             425     9.28698E-03     9.30785E-03
            2242             425     9.28698E-03     9.30785E-03
            2241             425     9.28698E-03     9.30785E-03
            1786             425     9.28698E-03     9.30785E-03
            2241             426     9.90632E-03     9.88113E-03
            2240             426     9.90632E-03     9.88113E-03
            1787             426     9.90632E-03     9.88113E-03
            1788             426     9.90632E-03     9.88113E-03
            2239             427     10.2874E-03     10.2616E-03
            2240             427     10.2874E-03     10.2616E-03
            1789             427     10.2874E-03     10.2616E-03
            1788             427     10.2874E-03     10.2616E-03
            2238             428     10.3178E-03     10.2675E-03
            1790             428     10.3178E-03     10.2675E-03
            2239             428     10.3178E-03     10.2675E-03
            1789             428     10.3178E-03     10.2675E-03
            1790             429     9.98683E-03     9.92384E-03
            2238             429     9.98683E-03     9.92384E-03
            2237             429     9.98683E-03     9.92384E-03
            1791             429     9.98683E-03     9.92384E-03
            1791             430     9.48293E-03     9.39364E-03
            1792             430     9.48293E-03     9.39364E-03
            2237             430     9.48293E-03     9.39364E-03
            2236             430     9.48293E-03     9.39364E-03
            1793             431     8.53373E-03     8.55133E-03
            2235             431     8.53373E-03     8.55133E-03
            2236             431     8.53373E-03     8.55133E-03
            1792             431     8.53373E-03     8.55133E-03
            2233             432     61.3840E-03     58.8475E-03
            3913             432     61.3840E-03     58.8475E-03
            3912             432     61.3840E-03     58.8475E-03
            2234             432     61.3840E-03     58.8475E-03
            2233             433     42.5065E-03     40.5688E-03
            2232             433     42.5065E-03     40.5688E-03
            3912             433     42.5065E-03     40.5688E-03
            3911             433     42.5065E-03     40.5688E-03
            3910             434     27.2661E-03     26.2564E-03
            3911             434     27.2661E-03     26.2564E-03
            2232             434     27.2661E-03     26.2564E-03
            2231             434     27.2661E-03     26.2564E-03
            3910             435     19.9273E-03     19.4233E-03
            2231             435     19.9273E-03     19.4233E-03
            3909             435     19.9273E-03     19.4233E-03
            2230             435     19.9273E-03     19.4233E-03
            2229             436     26.0412E-03     24.9829E-03
            2230             436     26.0412E-03     24.9829E-03
            3908             436     26.0412E-03     24.9829E-03
            3909             436     26.0412E-03     24.9829E-03
            2229             437     40.6468E-03     38.5733E-03
            3908             437     40.6468E-03     38.5733E-03
            2228             437     40.6468E-03     38.5733E-03
            3907             437     40.6468E-03     38.5733E-03
            2228             438     57.6106E-03     54.5540E-03
            2227             438     57.6106E-03     54.5540E-03
            3906             438     57.6106E-03     54.5540E-03
            3907             438     57.6106E-03     54.5540E-03
            2226             439     77.9565E-03     74.0149E-03
            2227             439     77.9565E-03     74.0149E-03
            3906             439     77.9565E-03     74.0149E-03
            3905             439     77.9565E-03     74.0149E-03
            2217             440     92.1396E-03     88.5239E-03
            2226             440     92.1396E-03     88.5239E-03
            2208             441     88.1530E-03     87.9714E-03
            2217             441     88.1530E-03     87.9714E-03
            2199             442     86.0365E-03     84.9223E-03
            2208             442     86.0365E-03     84.9223E-03
            2190             443     84.5980E-03     83.5120E-03
            2199             443     84.5980E-03     83.5120E-03
            2190             444     82.8480E-03     81.6540E-03
            2181             444     82.8480E-03     81.6540E-03
            2172             445     81.0159E-03     80.0870E-03
            2181             445     81.0159E-03     80.0870E-03
            2163             446     78.7858E-03     78.0543E-03
            2172             446     78.7858E-03     78.0543E-03
            2154             447     76.6753E-03     76.8727E-03
            2163             447     76.6753E-03     76.8727E-03
            2145             448     74.4184E-03     71.9568E-03
            2154             448     74.4184E-03     71.9568E-03
            2145             449     77.7380E-03     71.2184E-03
            2136             449     77.7380E-03     71.2184E-03
            2127             450     79.7776E-03     76.6643E-03
            2136             450     79.7776E-03     76.6643E-03
            2118             451     75.3333E-03     75.0999E-03
            2127             451     75.3333E-03     75.0999E-03
            2118             452     72.7802E-03     71.8096E-03
            2109             452     72.7802E-03     71.8096E-03
            2100             453     70.9483E-03     69.9271E-03
            2109             453     70.9483E-03     69.9271E-03
            2091             454     68.8617E-03     67.8108E-03
            2100             454     68.8617E-03     67.8108E-03
            2082             455     66.7903E-03     65.8310E-03
            2091             455     66.7903E-03     65.8310E-03
            2073             456     64.6245E-03     63.8080E-03
            2082             456     64.6245E-03     63.8080E-03
            2064             457     62.1057E-03     61.5950E-03
            2073             457     62.1057E-03     61.5950E-03
            2064             458     59.5519E-03     59.7840E-03
            2055             458     59.5519E-03     59.7840E-03
            2055             459     56.5277E-03     54.7186E-03
            2046             459     56.5277E-03     54.7186E-03
            2046             460     60.4170E-03     55.3825E-03
            2037             460     60.4170E-03     55.3825E-03
            2037             461     63.2155E-03     60.7703E-03
            2028             461     63.2155E-03     60.7703E-03
            2028             462     58.3580E-03     58.1159E-03
            2019             462     58.3580E-03     58.1159E-03
            2019             463     55.3592E-03     54.5834E-03
            2010             463     55.3592E-03     54.5834E-03
            2010             464     53.0741E-03     52.2968E-03
            2001             464     53.0741E-03     52.2968E-03
            2001             465     50.6201E-03     49.8457E-03
            1992             465     50.6201E-03     49.8457E-03
            1983             466     48.2136E-03     47.5389E-03
            1992             466     48.2136E-03     47.5389E-03
            1983             467     45.7164E-03     45.1784E-03
            1974             467     45.7164E-03     45.1784E-03
            1974             468     42.9509E-03     42.6917E-03
            1965             468     42.9509E-03     42.6917E-03
            1956             469     39.9927E-03     40.3145E-03
            1965             469     39.9927E-03     40.3145E-03
            1956             470     36.2000E-03     35.2174E-03
            1947             470     36.2000E-03     35.2174E-03
            1947             471     40.6009E-03     37.4076E-03
            1938             471     40.6009E-03     37.4076E-03
            1929             472     44.2280E-03     42.5879E-03
            1938             472     44.2280E-03     42.5879E-03
            1929             473     39.0454E-03     38.8195E-03
            1920             473     39.0454E-03     38.8195E-03
            1911             474     35.6565E-03     35.1190E-03
            1920             474     35.6565E-03     35.1190E-03
            1902             475     32.9761E-03     32.4808E-03
            1911             475     32.9761E-03     32.4808E-03
            1902             476     30.2370E-03     29.7756E-03
            1893             476     30.2370E-03     29.7756E-03
            1884             477     27.5994E-03     27.2444E-03
            1893             477     27.5994E-03     27.2444E-03
            1875             478     24.9203E-03     24.6923E-03
            1884             478     24.9203E-03     24.6923E-03
            1866             479     22.1085E-03     22.1432E-03
            1875             479     22.1085E-03     22.1432E-03
            1866             480     19.1128E-03     19.5625E-03
            1857             480     19.1128E-03     19.5625E-03
            1848             481     15.3196E-03     15.4813E-03
            1857             481     15.3196E-03     15.4813E-03
            1839             482     19.3883E-03     18.4250E-03
            1848             482     19.3883E-03     18.4250E-03
            1839             483     22.7678E-03     22.0237E-03
            1830             483     22.7678E-03     22.0237E-03
            1830             484     17.7620E-03     17.6134E-03
            1821             484     17.7620E-03     17.6134E-03
            1812             485     14.6910E-03     14.4405E-03
            1821             485     14.6910E-03     14.4405E-03
            1812             486     12.6394E-03     12.5652E-03
            1803             486     12.6394E-03     12.5652E-03
            1794             487     11.6578E-03     11.7836E-03
            1803             487     11.6578E-03     11.7836E-03
            1794             488     12.6912E-03     12.8009E-03
            1785             488     12.6912E-03     12.8009E-03
            2269             489     920.464E-06     923.293E-06
            2270             489     920.464E-06     923.293E-06
            2269             490     1.05995E-03     1.06241E-03
            2268             490     1.05995E-03     1.06241E-03
            2267             491     1.11366E-03     1.11550E-03
            2268             491     1.11366E-03     1.11550E-03
            2267             492     1.13145E-03     1.13604E-03
            2266             492     1.13145E-03     1.13604E-03
            2266             493     1.13145E-03     1.13604E-03
            2265             493     1.13145E-03     1.13604E-03
            2265             494     1.11366E-03     1.11550E-03
            2264             494     1.11366E-03     1.11550E-03
            2264             495     1.05995E-03     1.06241E-03
            2263             495     1.05995E-03     1.06241E-03
            2262             496     920.464E-06     923.293E-06
            2263             496     920.464E-06     923.293E-06
            3905             520     90.1064E-03     67.7618E-03
            3914             520     90.1064E-03     67.7618E-03
            3914             521     84.4325E-03     68.5961E-03
            3923             521     84.4325E-03     68.5961E-03
            3932             522     75.8795E-03     82.5502E-03
            3923             522     75.8795E-03     82.5502E-03
            3932             523     83.2543E-03     79.5070E-03
            3941             523     83.2543E-03     79.5070E-03
            3941             524     77.7296E-03     89.2384E-03
            3950             524     77.7296E-03     89.2384E-03
            3951             609     60.1281E-03     72.7634E-03
            3851             609     60.1281E-03     72.7634E-03
            3852             609     60.1281E-03     72.7634E-03
            3950             609     60.1281E-03     72.7634E-03
            3951             610     37.3886E-03     47.9500E-03
            3952             610     37.3886E-03     47.9500E-03
            3853             610     37.3886E-03     47.9500E-03
            3852             610     37.3886E-03     47.9500E-03
            3952             611     18.9376E-03     29.3453E-03
            3854             611     18.9376E-03     29.3453E-03
            3953             611     18.9376E-03     29.3453E-03
            3853             611     18.9376E-03     29.3453E-03
            3953             612     9.44786E-03     14.3056E-03
            3855             612     9.44786E-03     14.3056E-03
            3954             612     9.44786E-03     14.3056E-03
            3854             612     9.44786E-03     14.3056E-03
            3955             613     17.4394E-03     12.6834E-03
            3855             613     17.4394E-03     12.6834E-03
            3856             613     17.4394E-03     12.6834E-03
            3954             613     17.4394E-03     12.6834E-03
            3856             614     34.9819E-03     26.4643E-03
            3955             614     34.9819E-03     26.4643E-03
            3857             614     34.9819E-03     26.4643E-03
            3956             614     34.9819E-03     26.4643E-03
            3956             615     53.7022E-03     45.1454E-03
            3858             615     53.7022E-03     45.1454E-03
            3857             615     53.7022E-03     45.1454E-03
            3957             615     53.7022E-03     45.1454E-03
            3957             616     77.8257E-03     68.8379E-03
            3859             616     77.8257E-03     68.8379E-03
            3958             616     77.8257E-03     68.8379E-03
            3858             616     77.8257E-03     68.8379E-03
            5386             617     66.4862E-03     63.8643E-03
            3904             617     66.4862E-03     63.8643E-03
            3903             617     66.4862E-03     63.8643E-03
            5387             617     66.4862E-03     63.8643E-03
            3903             618     49.6691E-03     47.8621E-03
            5385             618     49.6691E-03     47.8621E-03
            5386             618     49.6691E-03     47.8621E-03
            3902             618     49.6691E-03     47.8621E-03
            5384             619     34.3579E-03     33.5803E-03
            3901             619     34.3579E-03     33.5803E-03
            3902             619     34.3579E-03     33.5803E-03
            5385             619     34.3579E-03     33.5803E-03
            5383             620     21.0648E-03     20.7664E-03
            5384             620     21.0648E-03     20.7664E-03
            3901             620     21.0648E-03     20.7664E-03
            3900             620     21.0648E-03     20.7664E-03
            5383             621     17.0649E-03     16.3659E-03
            3900             621     17.0649E-03     16.3659E-03
            5382             621     17.0649E-03     16.3659E-03
            3899             621     17.0649E-03     16.3659E-03
            5381             622     25.4557E-03     23.7026E-03
            5382             622     25.4557E-03     23.7026E-03
            3898             622     25.4557E-03     23.7026E-03
            3899             622     25.4557E-03     23.7026E-03
            3898             623     39.6982E-03     36.4873E-03
            5380             623     39.6982E-03     36.4873E-03
            3897             623     39.6982E-03     36.4873E-03
            5381             623     39.6982E-03     36.4873E-03
            3896             624     55.9129E-03     51.3029E-03
            5379             624     55.9129E-03     51.3029E-03
            5380             624     55.9129E-03     51.3029E-03
            3897             624     55.9129E-03     51.3029E-03
            3887             625     66.5952E-03     63.2356E-03
            3896             625     66.5952E-03     63.2356E-03
            3887             626     69.2960E-03     70.8390E-03
            3878             626     69.2960E-03     70.8390E-03
            3869             627     71.9158E-03     72.3893E-03
            3878             627     71.9158E-03     72.3893E-03
            3860             628     75.0476E-03     75.7508E-03
            3869             628     75.0476E-03     75.7508E-03
            3860             629     78.2283E-03     77.0429E-03
            3851             629     78.2283E-03     77.0429E-03
            5388             636     70.0975E-03     67.5157E-03
            5379             636     70.0975E-03     67.5157E-03
            5397             637     74.7705E-03     72.3596E-03
            5388             637     74.7705E-03     72.3596E-03
            5406             638     70.4185E-03     70.3402E-03
            5397             638     70.4185E-03     70.3402E-03
            5415             639     67.4600E-03     66.8891E-03
            5406             639     67.4600E-03     66.8891E-03
            5424             640     65.3503E-03     64.5981E-03
            5415             640     65.3503E-03     64.5981E-03
            5433             641     62.9256E-03     62.2106E-03
            5424             641     62.9256E-03     62.2106E-03
            5442             642     60.6207E-03     59.9272E-03
            5433             642     60.6207E-03     59.9272E-03
            5451             643     58.1204E-03     57.7171E-03
            5442             643     58.1204E-03     57.7171E-03
            5460             644     55.4502E-03     55.1808E-03
            5451             644     55.4502E-03     55.1808E-03
            5460             645     52.1766E-03     53.0956E-03
            5469             645     52.1766E-03     53.0956E-03
            5478             646     48.7336E-03     46.2809E-03
            5469             646     48.7336E-03     46.2809E-03
            5487             647     54.8507E-03     49.3772E-03
            5478             647     54.8507E-03     49.3772E-03
            5496             648     59.9512E-03     58.2229E-03
            5487             648     59.9512E-03     58.2229E-03
            5496             649     55.1086E-03     54.9347E-03
            5505             649     55.1086E-03     54.9347E-03
            5514             650     51.6914E-03     51.2421E-03
            5505             650     51.6914E-03     51.2421E-03
            5514             651     49.2069E-03     48.6259E-03
            5523             651     49.2069E-03     48.6259E-03
            5523             652     46.5100E-03     45.9180E-03
            5532             652     46.5100E-03     45.9180E-03
            5541             653     43.9416E-03     43.4341E-03
            5532             653     43.9416E-03     43.4341E-03
            5550             654     41.3649E-03     40.8570E-03
            5541             654     41.3649E-03     40.8570E-03
            5550             655     38.6390E-03     38.4679E-03
            5559             655     38.6390E-03     38.4679E-03
            5559             656     35.7950E-03     35.7277E-03
            5568             656     35.7950E-03     35.7277E-03
            5577             657     32.3108E-03     33.2629E-03
            5568             657     32.3108E-03     33.2629E-03
            5586             658     28.4931E-03     26.9314E-03
            5577             658     28.4931E-03     26.9314E-03
            5595             659     34.8686E-03     31.4880E-03
            5586             659     34.8686E-03     31.4880E-03
            5604             660     40.3015E-03     39.4152E-03
            5595             660     40.3015E-03     39.4152E-03
            5604             661     35.0535E-03     34.8564E-03
            5613             661     35.0535E-03     34.8564E-03
            5613             662     31.2723E-03     31.0673E-03
            5622             662     31.2723E-03     31.0673E-03
            5622             663     28.4807E-03     28.1664E-03
            5631             663     28.4807E-03     28.1664E-03
            5631             664     25.5786E-03     25.3826E-03
            5640             664     25.5786E-03     25.3826E-03
            5640             665     22.9154E-03     22.7787E-03
            5649             665     22.9154E-03     22.7787E-03
            5658             666     20.2233E-03     20.3257E-03
            5649             666     20.2233E-03     20.3257E-03
            5658             667     17.6174E-03     17.9389E-03
            5667             667     17.6174E-03     17.9389E-03
            5676             668     14.9938E-03     15.9512E-03
            5667             668     14.9938E-03     15.9512E-03
            5685             669     13.1462E-03     13.4776E-03
            5676             669     13.1462E-03     13.4776E-03
            5694             670     17.4195E-03     16.9715E-03
            5685             670     17.4195E-03     16.9715E-03
            5703             671     19.7902E-03     19.7888E-03
            5694             671     19.7902E-03     19.7888E-03
            5703             672     15.3933E-03     15.6605E-03
            5712             672     15.3933E-03     15.6605E-03
            5721             673     13.6510E-03     14.1202E-03
            5712             673     13.6510E-03     14.1202E-03
            5730             674     14.9438E-03     15.1852E-03
            5721             674     14.9438E-03     15.1852E-03
            5333             765     1.18535E-03     1.16306E-03
            5342             765     1.18535E-03     1.16306E-03
            5342             766     915.744E-06     919.222E-06
            5351             766     915.744E-06     919.222E-06
            5351             767     755.343E-06     763.642E-06
            5360             767     755.343E-06     763.642E-06
            5369             768     693.453E-06     710.381E-06
            5360             768     693.453E-06     710.381E-06
            5378             769     741.516E-06     755.317E-06
            5369             769     741.516E-06     755.317E-06
            5326             792     9.62948E-03     9.61041E-03
            5325             792     9.62948E-03     9.61041E-03
            5731             792     9.62948E-03     9.61041E-03
            5730             792     9.62948E-03     9.61041E-03
            5327             793     10.8730E-03     10.8081E-03
            5731             793     10.8730E-03     10.8081E-03
            5732             793     10.8730E-03     10.8081E-03
            5326             793     10.8730E-03     10.8081E-03
            5327             794     11.4296E-03     11.3930E-03
            5328             794     11.4296E-03     11.3930E-03
            5732             794     11.4296E-03     11.3930E-03
            5733             794     11.4296E-03     11.3930E-03
            5734             795     11.7998E-03     11.7816E-03
            5328             795     11.7998E-03     11.7816E-03
            5733             795     11.7998E-03     11.7816E-03
            5329             795     11.7998E-03     11.7816E-03
            5735             796     11.7863E-03     11.7831E-03
            5330             796     11.7863E-03     11.7831E-03
            5329             796     11.7863E-03     11.7831E-03
            5734             796     11.7863E-03     11.7831E-03
            5735             797     11.3972E-03     11.3867E-03
            5331             797     11.3972E-03     11.3867E-03
            5736             797     11.3972E-03     11.3867E-03
            5330             797     11.3972E-03     11.3867E-03
            5332             798     10.7821E-03     10.7962E-03
            5331             798     10.7821E-03     10.7962E-03
            5737             798     10.7821E-03     10.7962E-03
            5736             798     10.7821E-03     10.7962E-03
            5737             799     9.46821E-03     9.46324E-03
            5738             799     9.46821E-03     9.46324E-03
            5333             799     9.46821E-03     9.46324E-03
            5332             799     9.46821E-03     9.46324E-03
            5378             800     905.281E-06     909.194E-06
            5377             800     905.281E-06     909.194E-06
            5376             801     1.03735E-03     1.03655E-03
            5377             801     1.03735E-03     1.03655E-03
            5376             802     1.11085E-03     1.10832E-03
            5375             802     1.11085E-03     1.10832E-03
            5375             803     1.14931E-03     1.14736E-03
            5374             803     1.14931E-03     1.14736E-03
            5374             804     1.14931E-03     1.14736E-03
            5373             804     1.14931E-03     1.14736E-03
            5372             805     1.11085E-03     1.10832E-03
            5373             805     1.11085E-03     1.10832E-03
            5371             806     1.03735E-03     1.03655E-03
            5372             806     1.03735E-03     1.03655E-03
            5370             807     905.281E-06     909.194E-06
            5371             807     905.281E-06     909.194E-06
            1795            2369     14.9464E-03     15.0479E-03
            1794            2369     14.9464E-03     15.0479E-03
            1785            2369     14.9464E-03     15.0479E-03
            1786            2369     14.9464E-03     15.0479E-03
            1795            2370     17.9362E-03     17.9466E-03
            1786            2370     17.9362E-03     17.9466E-03
            1796            2370     17.9362E-03     17.9466E-03
            1787            2370     17.9362E-03     17.9466E-03
            1797            2371     19.2075E-03     19.1218E-03
            1788            2371     19.2075E-03     19.1218E-03
            1787            2371     19.2075E-03     19.1218E-03
            1796            2371     19.2075E-03     19.1218E-03
            1797            2372     19.8438E-03     19.7228E-03
            1789            2372     19.8438E-03     19.7228E-03
            1798            2372     19.8438E-03     19.7228E-03
            1788            2372     19.8438E-03     19.7228E-03
            1789            2373     19.8838E-03     19.7252E-03
            1790            2373     19.8838E-03     19.7252E-03
            1798            2373     19.8838E-03     19.7252E-03
            1799            2373     19.8838E-03     19.7252E-03
            1791            2374     19.3347E-03     19.1387E-03
            1800            2374     19.3347E-03     19.1387E-03
            1790            2374     19.3347E-03     19.1387E-03
            1799            2374     19.3347E-03     19.1387E-03
            1792            2375     18.2735E-03     18.0120E-03
            1801            2375     18.2735E-03     18.0120E-03
            1800            2375     18.2735E-03     18.0120E-03
            1791            2375     18.2735E-03     18.0120E-03
            1802            2376     15.4629E-03     15.5031E-03
            1801            2376     15.4629E-03     15.5031E-03
            1792            2376     15.4629E-03     15.5031E-03
            1793            2376     15.4629E-03     15.5031E-03
            1795            2377     14.4396E-03     14.4657E-03
            1794            2377     14.4396E-03     14.4657E-03
            1803            2377     14.4396E-03     14.4657E-03
            1804            2377     14.4396E-03     14.4657E-03
            1796            2378     18.4501E-03     18.3696E-03
            1804            2378     18.4501E-03     18.3696E-03
            1795            2378     18.4501E-03     18.3696E-03
            1805            2378     18.4501E-03     18.3696E-03
            1805            2379     20.0515E-03     19.9238E-03
            1797            2379     20.0515E-03     19.9238E-03
            1806            2379     20.0515E-03     19.9238E-03
            1796            2379     20.0515E-03     19.9238E-03
            1797            2380     20.6214E-03     20.4452E-03
            1806            2380     20.6214E-03     20.4452E-03
            1798            2380     20.6214E-03     20.4452E-03
            1807            2380     20.6214E-03     20.4452E-03
            1807            2381     20.6134E-03     20.4291E-03
            1799            2381     20.6134E-03     20.4291E-03
            1798            2381     20.6134E-03     20.4291E-03
            1808            2381     20.6134E-03     20.4291E-03
            1808            2382     20.0714E-03     19.8593E-03
            1799            2382     20.0714E-03     19.8593E-03
            1809            2382     20.0714E-03     19.8593E-03
            1800            2382     20.0714E-03     19.8593E-03
            1810            2383     18.4830E-03     18.3566E-03
            1801            2383     18.4830E-03     18.3566E-03
            1809            2383     18.4830E-03     18.3566E-03
            1800            2383     18.4830E-03     18.3566E-03
            1811            2384     14.3850E-03     14.6168E-03
            1802            2384     14.3850E-03     14.6168E-03
            1801            2384     14.3850E-03     14.6168E-03
            1810            2384     14.3850E-03     14.6168E-03
            1803            2385     14.9146E-03     14.8088E-03
            1812            2385     14.9146E-03     14.8088E-03
            1813            2385     14.9146E-03     14.8088E-03
            1804            2385     14.9146E-03     14.8088E-03
            1804            2386     18.6073E-03     18.4523E-03
            1805            2386     18.6073E-03     18.4523E-03
            1814            2386     18.6073E-03     18.4523E-03
            1813            2386     18.6073E-03     18.4523E-03
            1805            2387     20.5921E-03     20.4625E-03
            1815            2387     20.5921E-03     20.4625E-03
            1806            2387     20.5921E-03     20.4625E-03
            1814            2387     20.5921E-03     20.4625E-03
            1806            2388     21.2345E-03     21.1535E-03
            1816            2388     21.2345E-03     21.1535E-03
            1807            2388     21.2345E-03     21.1535E-03
            1815            2388     21.2345E-03     21.1535E-03
            1807            2389     21.1926E-03     21.1051E-03
            1817            2389     21.1926E-03     21.1051E-03
            1816            2389     21.1926E-03     21.1051E-03
            1808            2389     21.1926E-03     21.1051E-03
            1808            2390     20.4249E-03     20.3845E-03
            1809            2390     20.4249E-03     20.3845E-03
            1818            2390     20.4249E-03     20.3845E-03
            1817            2390     20.4249E-03     20.3845E-03
            1819            2391     18.2374E-03     18.4034E-03
            1810            2391     18.2374E-03     18.4034E-03
            1818            2391     18.2374E-03     18.4034E-03
            1809            2391     18.2374E-03     18.4034E-03
            1820            2392     14.3592E-03     14.6792E-03
            1819            2392     14.3592E-03     14.6792E-03
            1810            2392     14.3592E-03     14.6792E-03
            1811            2392     14.3592E-03     14.6792E-03
            1813            2393     16.3546E-03     16.1330E-03
            1812            2393     16.3546E-03     16.1330E-03
            1822            2393     16.3546E-03     16.1330E-03
            1821            2393     16.3546E-03     16.1330E-03
            1822            2394     19.1798E-03     19.0584E-03
            1813            2394     19.1798E-03     19.0584E-03
            1823            2394     19.1798E-03     19.0584E-03
            1814            2394     19.1798E-03     19.0584E-03
            1823            2395     20.7713E-03     20.7809E-03
            1824            2395     20.7713E-03     20.7809E-03
            1815            2395     20.7713E-03     20.7809E-03
            1814            2395     20.7713E-03     20.7809E-03
            1816            2396     21.2207E-03     21.2846E-03
            1815            2396     21.2207E-03     21.2846E-03
            1824            2396     21.2207E-03     21.2846E-03
            1825            2396     21.2207E-03     21.2846E-03
            1817            2397     21.1415E-03     21.2200E-03
            1825            2397     21.1415E-03     21.2200E-03
            1826            2397     21.1415E-03     21.2200E-03
            1816            2397     21.1415E-03     21.2200E-03
            1817            2398     20.4712E-03     20.6116E-03
            1827            2398     20.4712E-03     20.6116E-03
            1826            2398     20.4712E-03     20.6116E-03
            1818            2398     20.4712E-03     20.6116E-03
            1827            2399     18.5979E-03     18.8039E-03
            1828            2399     18.5979E-03     18.8039E-03
            1819            2399     18.5979E-03     18.8039E-03
            1818            2399     18.5979E-03     18.8039E-03
            1820            2400     15.4671E-03     15.7225E-03
            1828            2400     15.4671E-03     15.7225E-03
            1829            2400     15.4671E-03     15.7225E-03
            1819            2400     15.4671E-03     15.7225E-03
            1821            2401     18.7911E-03     18.6878E-03
            1822            2401     18.7911E-03     18.6878E-03
            1830            2401     18.7911E-03     18.6878E-03
            1831            2401     18.7911E-03     18.6878E-03
            1822            2402     20.1048E-03     20.1676E-03
            1832            2402     20.1048E-03     20.1676E-03
            1823            2402     20.1048E-03     20.1676E-03
            1831            2402     20.1048E-03     20.1676E-03
            1833            2403     20.3912E-03     20.5474E-03
            1824            2403     20.3912E-03     20.5474E-03
            1832            2403     20.3912E-03     20.5474E-03
            1823            2403     20.3912E-03     20.5474E-03
            1833            2404     20.4837E-03     20.6335E-03
            1825            2404     20.4837E-03     20.6335E-03
            1834            2404     20.4837E-03     20.6335E-03
            1824            2404     20.4837E-03     20.6335E-03
            1835            2405     20.3562E-03     20.5587E-03
            1826            2405     20.3562E-03     20.5587E-03
            1834            2405     20.3562E-03     20.5587E-03
            1825            2405     20.3562E-03     20.5587E-03
            1836            2406     20.0283E-03     20.2672E-03
            1827            2406     20.0283E-03     20.2672E-03
            1826            2406     20.0283E-03     20.2672E-03
            1835            2406     20.0283E-03     20.2672E-03
            1827            2407     19.4357E-03     19.6335E-03
            1837            2407     19.4357E-03     19.6335E-03
            1828            2407     19.4357E-03     19.6335E-03
            1836            2407     19.4357E-03     19.6335E-03
            1837            2408     17.7588E-03     17.8551E-03
            1828            2408     17.7588E-03     17.8551E-03
            1838            2408     17.7588E-03     17.8551E-03
            1829            2408     17.7588E-03     17.8551E-03
            1840            2409     21.8307E-03     21.4295E-03
            1831            2409     21.8307E-03     21.4295E-03
            1839            2409     21.8307E-03     21.4295E-03
            1830            2409     21.8307E-03     21.4295E-03
            1841            2410     20.1370E-03     20.0969E-03
            1831            2410     20.1370E-03     20.0969E-03
            1840            2410     20.1370E-03     20.0969E-03
            1832            2410     20.1370E-03     20.0969E-03
            1832            2411     19.3742E-03     19.3977E-03
            1841            2411     19.3742E-03     19.3977E-03
            1842            2411     19.3742E-03     19.3977E-03
            1833            2411     19.3742E-03     19.3977E-03
            1842            2412     19.2174E-03     19.3233E-03
            1833            2412     19.2174E-03     19.3233E-03
            1843            2412     19.2174E-03     19.3233E-03
            1834            2412     19.2174E-03     19.3233E-03
            1844            2413     19.0584E-03     19.2291E-03
            1834            2413     19.0584E-03     19.2291E-03
            1843            2413     19.0584E-03     19.2291E-03
            1835            2413     19.0584E-03     19.2291E-03
            1844            2414     18.8808E-03     19.1132E-03
            1835            2414     18.8808E-03     19.1132E-03
            1845            2414     18.8808E-03     19.1132E-03
            1836            2414     18.8808E-03     19.1132E-03
            1845            2415     19.2837E-03     19.5048E-03
            1836            2415     19.2837E-03     19.5048E-03
            1846            2415     19.2837E-03     19.5048E-03
            1837            2415     19.2837E-03     19.5048E-03
            1838            2416     20.4706E-03     20.5010E-03
            1837            2416     20.4706E-03     20.5010E-03
            1847            2416     20.4706E-03     20.5010E-03
            1846            2416     20.4706E-03     20.5010E-03
            1849            2417     19.3068E-03     18.5035E-03
            1840            2417     19.3068E-03     18.5035E-03
            1848            2417     19.3068E-03     18.5035E-03
            1839            2417     19.3068E-03     18.5035E-03
            1849            2418     18.8696E-03     18.3267E-03
            1840            2418     18.8696E-03     18.3267E-03
            1850            2418     18.8696E-03     18.3267E-03
            1841            2418     18.8696E-03     18.3267E-03
            1841            2419     18.5796E-03     18.2473E-03
            1851            2419     18.5796E-03     18.2473E-03
            1842            2419     18.5796E-03     18.2473E-03
            1850            2419     18.5796E-03     18.2473E-03
            1852            2420     18.4636E-03     18.2824E-03
            1843            2420     18.4636E-03     18.2824E-03
            1851            2420     18.4636E-03     18.2824E-03
            1842            2420     18.4636E-03     18.2824E-03
            1843            2421     18.2997E-03     18.1084E-03
            1853            2421     18.2997E-03     18.1084E-03
            1844            2421     18.2997E-03     18.1084E-03
            1852            2421     18.2997E-03     18.1084E-03
            1844            2422     18.0354E-03     17.7383E-03
            1854            2422     18.0354E-03     17.7383E-03
            1845            2422     18.0354E-03     17.7383E-03
            1853            2422     18.0354E-03     17.7383E-03
            1845            2423     18.0488E-03     17.4436E-03
            1854            2423     18.0488E-03     17.4436E-03
            1846            2423     18.0488E-03     17.4436E-03
            1855            2423     18.0488E-03     17.4436E-03
            1847            2424     18.0898E-03     17.1474E-03
            1846            2424     18.0898E-03     17.1474E-03
            1856            2424     18.0898E-03     17.1474E-03
            1855            2424     18.0898E-03     17.1474E-03
            1848            2425     16.9297E-03     16.7967E-03
            1849            2425     16.9297E-03     16.7967E-03
            1857            2425     16.9297E-03     16.7967E-03
            1858            2425     16.9297E-03     16.7967E-03
            1858            2426     18.6857E-03     18.1635E-03
            1859            2426     18.6857E-03     18.1635E-03
            1850            2426     18.6857E-03     18.1635E-03
            1849            2426     18.6857E-03     18.1635E-03
            1851            2427     18.7334E-03     18.1264E-03
            1860            2427     18.7334E-03     18.1264E-03
            1859            2427     18.7334E-03     18.1264E-03
            1850            2427     18.7334E-03     18.1264E-03
            1860            2428     18.4766E-03     17.8310E-03
            1852            2428     18.4766E-03     17.8310E-03
            1851            2428     18.4766E-03     17.8310E-03
            1861            2428     18.4766E-03     17.8310E-03
            1852            2429     18.2373E-03     17.4757E-03
            1861            2429     18.2373E-03     17.4757E-03
            1853            2429     18.2373E-03     17.4757E-03
            1862            2429     18.2373E-03     17.4757E-03
            1863            2430     18.0328E-03     17.0635E-03
            1854            2430     18.0328E-03     17.0635E-03
            1853            2430     18.0328E-03     17.0635E-03
            1862            2430     18.0328E-03     17.0635E-03
            1864            2431     17.6626E-03     16.4385E-03
            1855            2431     17.6626E-03     16.4385E-03
            1854            2431     17.6626E-03     16.4385E-03
            1863            2431     17.6626E-03     16.4385E-03
            1855            2432     15.2418E-03     14.4880E-03
            1864            2432     15.2418E-03     14.4880E-03
            1856            2432     15.2418E-03     14.4880E-03
            1865            2432     15.2418E-03     14.4880E-03
            1858            2433     19.5275E-03     19.8922E-03
            1867            2433     19.5275E-03     19.8922E-03
            1857            2433     19.5275E-03     19.8922E-03
            1866            2433     19.5275E-03     19.8922E-03
            1858            2434     19.9039E-03     19.8377E-03
            1868            2434     19.9039E-03     19.8377E-03
            1867            2434     19.9039E-03     19.8377E-03
            1859            2434     19.9039E-03     19.8377E-03
            1860            2435     19.4613E-03     18.8700E-03
            1868            2435     19.4613E-03     18.8700E-03
            1859            2435     19.4613E-03     18.8700E-03
            1869            2435     19.4613E-03     18.8700E-03
            1870            2436     18.7948E-03     17.9039E-03
            1861            2436     18.7948E-03     17.9039E-03
            1869            2436     18.7948E-03     17.9039E-03
            1860            2436     18.7948E-03     17.9039E-03
            1871            2437     18.3980E-03     17.3719E-03
            1861            2437     18.3980E-03     17.3719E-03
            1862            2437     18.3980E-03     17.3719E-03
            1870            2437     18.3980E-03     17.3719E-03
            1872            2438     18.3335E-03     17.3396E-03
            1863            2438     18.3335E-03     17.3396E-03
            1871            2438     18.3335E-03     17.3396E-03
            1862            2438     18.3335E-03     17.3396E-03
            1872            2439     17.9775E-03     17.5218E-03
            1873            2439     17.9775E-03     17.5218E-03
            1864            2439     17.9775E-03     17.5218E-03
            1863            2439     17.9775E-03     17.5218E-03
            1873            2440     16.5076E-03     17.0021E-03
            1874            2440     16.5076E-03     17.0021E-03
            1865            2440     16.5076E-03     17.0021E-03
            1864            2440     16.5076E-03     17.0021E-03
            1866            2441     21.6615E-03     21.8109E-03
            1876            2441     21.6615E-03     21.8109E-03
            1875            2441     21.6615E-03     21.8109E-03
            1867            2441     21.6615E-03     21.8109E-03
            1867            2442     20.9391E-03     20.9923E-03
            1876            2442     20.9391E-03     20.9923E-03
            1877            2442     20.9391E-03     20.9923E-03
            1868            2442     20.9391E-03     20.9923E-03
            1869            2443     20.2059E-03     19.7957E-03
            1878            2443     20.2059E-03     19.7957E-03
            1877            2443     20.2059E-03     19.7957E-03
            1868            2443     20.2059E-03     19.7957E-03
            1870            2444     19.3438E-03     18.5717E-03
            1878            2444     19.3438E-03     18.5717E-03
            1879            2444     19.3438E-03     18.5717E-03
            1869            2444     19.3438E-03     18.5717E-03
            1879            2445     18.8103E-03     17.9459E-03
            1870            2445     18.8103E-03     17.9459E-03
            1871            2445     18.8103E-03     17.9459E-03
            1880            2445     18.8103E-03     17.9459E-03
            1871            2446     18.5964E-03     18.0487E-03
            1880            2446     18.5964E-03     18.0487E-03
            1872            2446     18.5964E-03     18.0487E-03
            1881            2446     18.5964E-03     18.0487E-03
            1872            2447     18.2403E-03     18.3827E-03
            1873            2447     18.2403E-03     18.3827E-03
            1882            2447     18.2403E-03     18.3827E-03
            1881            2447     18.2403E-03     18.3827E-03
            1873            2448     18.0901E-03     18.4663E-03
            1874            2448     18.0901E-03     18.4663E-03
            1883            2448     18.0901E-03     18.4663E-03
            1882            2448     18.0901E-03     18.4663E-03
            1885            2449     23.8504E-03     23.7453E-03
            1876            2449     23.8504E-03     23.7453E-03
            1884            2449     23.8504E-03     23.7453E-03
            1875            2449     23.8504E-03     23.7453E-03
            1877            2450     22.0851E-03     22.0357E-03
            1885            2450     22.0851E-03     22.0357E-03
            1876            2450     22.0851E-03     22.0357E-03
            1886            2450     22.0851E-03     22.0357E-03
            1878            2451     20.8178E-03     20.5525E-03
            1877            2451     20.8178E-03     20.5525E-03
            1887            2451     20.8178E-03     20.5525E-03
            1886            2451     20.8178E-03     20.5525E-03
            1887            2452     19.8137E-03     19.3087E-03
            1888            2452     19.8137E-03     19.3087E-03
            1878            2452     19.8137E-03     19.3087E-03
            1879            2452     19.8137E-03     19.3087E-03
            1889            2453     19.1308E-03     18.6354E-03
            1880            2453     19.1308E-03     18.6354E-03
            1888            2453     19.1308E-03     18.6354E-03
            1879            2453     19.1308E-03     18.6354E-03
            1881            2454     18.8069E-03     18.6544E-03
            1880            2454     18.8069E-03     18.6544E-03
            1890            2454     18.8069E-03     18.6544E-03
            1889            2454     18.8069E-03     18.6544E-03
            1881            2455     18.9368E-03     19.1274E-03
            1882            2455     18.9368E-03     19.1274E-03
            1891            2455     18.9368E-03     19.1274E-03
            1890            2455     18.9368E-03     19.1274E-03
            1882            2456     19.8884E-03     20.0710E-03
            1891            2456     19.8884E-03     20.0710E-03
            1883            2456     19.8884E-03     20.0710E-03
            1892            2456     19.8884E-03     20.0710E-03
            1893            2457     26.0314E-03     25.7817E-03
            1894            2457     26.0314E-03     25.7817E-03
            1885            2457     26.0314E-03     25.7817E-03
            1884            2457     26.0314E-03     25.7817E-03
            1895            2458     23.3709E-03     23.2421E-03
            1886            2458     23.3709E-03     23.2421E-03
            1885            2458     23.3709E-03     23.2421E-03
            1894            2458     23.3709E-03     23.2421E-03
            1886            2459     21.4813E-03     21.3277E-03
            1896            2459     21.4813E-03     21.3277E-03
            1895            2459     21.4813E-03     21.3277E-03
            1887            2459     21.4813E-03     21.3277E-03
            1887            2460     20.1179E-03     19.9088E-03
            1896            2460     20.1179E-03     19.9088E-03
            1897            2460     20.1179E-03     19.9088E-03
            1888            2460     20.1179E-03     19.9088E-03
            1888            2461     19.3161E-03     19.1803E-03
            1897            2461     19.3161E-03     19.1803E-03
            1898            2461     19.3161E-03     19.1803E-03
            1889            2461     19.3161E-03     19.1803E-03
            1898            2462     19.1822E-03     19.2463E-03
            1899            2462     19.1822E-03     19.2463E-03
            1890            2462     19.1822E-03     19.2463E-03
            1889            2462     19.1822E-03     19.2463E-03
            1890            2463     19.8744E-03     20.0702E-03
            1899            2463     19.8744E-03     20.0702E-03
            1891            2463     19.8744E-03     20.0702E-03
            1900            2463     19.8744E-03     20.0702E-03
            1900            2464     21.7839E-03     21.8088E-03
            1891            2464     21.7839E-03     21.8088E-03
            1892            2464     21.7839E-03     21.8088E-03
            1901            2464     21.7839E-03     21.8088E-03
            1894            2465     28.2679E-03     27.9350E-03
            1902            2465     28.2679E-03     27.9350E-03
            1903            2465     28.2679E-03     27.9350E-03
            1893            2465     28.2679E-03     27.9350E-03
            1894            2466     24.7821E-03     24.6545E-03
            1903            2466     24.7821E-03     24.6545E-03
            1895            2466     24.7821E-03     24.6545E-03
            1904            2466     24.7821E-03     24.6545E-03
            1895            2467     22.1431E-03     22.1328E-03
            1904            2467     22.1431E-03     22.1328E-03
            1905            2467     22.1431E-03     22.1328E-03
            1896            2467     22.1431E-03     22.1328E-03
            1906            2468     20.3534E-03     20.4362E-03
            1897            2468     20.3534E-03     20.4362E-03
            1905            2468     20.3534E-03     20.4362E-03
            1896            2468     20.3534E-03     20.4362E-03
            1906            2469     19.4525E-03     19.6339E-03
            1907            2469     19.4525E-03     19.6339E-03
            1898            2469     19.4525E-03     19.6339E-03
            1897            2469     19.4525E-03     19.6339E-03
            1898            2470     19.5995E-03     19.8528E-03
            1899            2470     19.5995E-03     19.8528E-03
            1908            2470     19.5995E-03     19.8528E-03
            1907            2470     19.5995E-03     19.8528E-03
            1908            2471     21.0215E-03     21.2067E-03
            1899            2471     21.0215E-03     21.2067E-03
            1900            2471     21.0215E-03     21.2067E-03
            1909            2471     21.0215E-03     21.2067E-03
            1901            2472     23.7658E-03     23.7152E-03
            1900            2472     23.7658E-03     23.7152E-03
            1909            2472     23.7658E-03     23.7152E-03
            1910            2472     23.7658E-03     23.7152E-03
            1912            2473     30.5715E-03     30.2161E-03
            1902            2473     30.5715E-03     30.2161E-03
            1911            2473     30.5715E-03     30.2161E-03
            1903            2473     30.5715E-03     30.2161E-03
            1904            2474     26.1963E-03     26.1189E-03
            1912            2474     26.1963E-03     26.1189E-03
            1913            2474     26.1963E-03     26.1189E-03
            1903            2474     26.1963E-03     26.1189E-03
            1904            2475     22.7946E-03     23.0064E-03
            1913            2475     22.7946E-03     23.0064E-03
            1905            2475     22.7946E-03     23.0064E-03
            1914            2475     22.7946E-03     23.0064E-03
            1915            2476     20.4875E-03     20.9312E-03
            1914            2476     20.4875E-03     20.9312E-03
            1905            2476     20.4875E-03     20.9312E-03
            1906            2476     20.4875E-03     20.9312E-03
            1907            2477     19.4951E-03     20.0192E-03
            1906            2477     19.4951E-03     20.0192E-03
            1916            2477     19.4951E-03     20.0192E-03
            1915            2477     19.4951E-03     20.0192E-03
            1907            2478     20.0428E-03     20.4862E-03
            1917            2478     20.0428E-03     20.4862E-03
            1908            2478     20.0428E-03     20.4862E-03
            1916            2478     20.0428E-03     20.4862E-03
            1909            2479     22.1950E-03     22.4247E-03
            1918            2479     22.1950E-03     22.4247E-03
            1917            2479     22.1950E-03     22.4247E-03
            1908            2479     22.1950E-03     22.4247E-03
            1910            2480     25.8599E-03     25.7553E-03
            1919            2480     25.8599E-03     25.7553E-03
            1918            2480     25.8599E-03     25.7553E-03
            1909            2480     25.8599E-03     25.7553E-03
            1921            2481     32.8674E-03     32.5524E-03
            1911            2481     32.8674E-03     32.5524E-03
            1912            2481     32.8674E-03     32.5524E-03
            1920            2481     32.8674E-03     32.5524E-03
            1922            2482     27.7139E-03     27.8814E-03
            1912            2482     27.7139E-03     27.8814E-03
            1913            2482     27.7139E-03     27.8814E-03
            1921            2482     27.7139E-03     27.8814E-03
            1922            2483     23.3371E-03     23.9050E-03
            1913            2483     23.3371E-03     23.9050E-03
            1923            2483     23.3371E-03     23.9050E-03
            1914            2483     23.3371E-03     23.9050E-03
            1923            2484     20.1764E-03     20.9452E-03
            1914            2484     20.1764E-03     20.9452E-03
            1924            2484     20.1764E-03     20.9452E-03
            1915            2484     20.1764E-03     20.9452E-03
            1924            2485     19.1273E-03     19.9745E-03
            1916            2485     19.1273E-03     19.9745E-03
            1925            2485     19.1273E-03     19.9745E-03
            1915            2485     19.1273E-03     19.9745E-03
            1916            2486     20.4183E-03     21.1581E-03
            1925            2486     20.4183E-03     21.1581E-03
            1926            2486     20.4183E-03     21.1581E-03
            1917            2486     20.4183E-03     21.1581E-03
            1926            2487     23.5149E-03     23.8763E-03
            1917            2487     23.5149E-03     23.8763E-03
            1918            2487     23.5149E-03     23.8763E-03
            1927            2487     23.5149E-03     23.8763E-03
            1927            2488     27.9345E-03     27.9005E-03
            1928            2488     27.9345E-03     27.9005E-03
            1918            2488     27.9345E-03     27.9005E-03
            1919            2488     27.9345E-03     27.9005E-03
            1929            2489     35.8252E-03     35.8506E-03
            1921            2489     35.8252E-03     35.8506E-03
            1930            2489     35.8252E-03     35.8506E-03
            1920            2489     35.8252E-03     35.8506E-03
            1921            2490     29.0912E-03     29.4894E-03
            1930            2490     29.0912E-03     29.4894E-03
            1922            2490     29.0912E-03     29.4894E-03
            1931            2490     29.0912E-03     29.4894E-03
            1923            2491     22.9850E-03     23.5852E-03
            1922            2491     22.9850E-03     23.5852E-03
            1931            2491     22.9850E-03     23.5852E-03
            1932            2491     22.9850E-03     23.5852E-03
            1933            2492     19.1807E-03     20.0078E-03
            1923            2492     19.1807E-03     20.0078E-03
            1932            2492     19.1807E-03     20.0078E-03
            1924            2492     19.1807E-03     20.0078E-03
            1925            2493     18.0229E-03     19.0080E-03
            1933            2493     18.0229E-03     19.0080E-03
            1924            2493     18.0229E-03     19.0080E-03
            1934            2493     18.0229E-03     19.0080E-03
            1935            2494     19.8932E-03     20.7980E-03
            1934            2494     19.8932E-03     20.7980E-03
            1926            2494     19.8932E-03     20.7980E-03
            1925            2494     19.8932E-03     20.7980E-03
            1927            2495     24.7165E-03     25.3126E-03
            1926            2495     24.7165E-03     25.3126E-03
            1936            2495     24.7165E-03     25.3126E-03
            1935            2495     24.7165E-03     25.3126E-03
            1936            2496     30.7273E-03     30.8338E-03
            1928            2496     30.7273E-03     30.8338E-03
            1927            2496     30.7273E-03     30.8338E-03
            1937            2496     30.7273E-03     30.8338E-03
            1938            2497     38.7501E-03     37.5416E-03
            1939            2497     38.7501E-03     37.5416E-03
            1929            2497     38.7501E-03     37.5416E-03
            1930            2497     38.7501E-03     37.5416E-03
            1930            2498     28.7769E-03     28.1392E-03
            1931            2498     28.7769E-03     28.1392E-03
            1939            2498     28.7769E-03     28.1392E-03
            1940            2498     28.7769E-03     28.1392E-03
            1931            2499     21.5438E-03     21.3620E-03
            1941            2499     21.5438E-03     21.3620E-03
            1932            2499     21.5438E-03     21.3620E-03
            1940            2499     21.5438E-03     21.3620E-03
            1942            2500     17.1590E-03     17.5573E-03
            1933            2500     17.1590E-03     17.5573E-03
            1932            2500     17.1590E-03     17.5573E-03
            1941            2500     17.1590E-03     17.5573E-03
            1933            2501     15.8789E-03     16.5530E-03
            1942            2501     15.8789E-03     16.5530E-03
            1934            2501     15.8789E-03     16.5530E-03
            1943            2501     15.8789E-03     16.5530E-03
            1943            2502     18.1762E-03     18.6920E-03
            1934            2502     18.1762E-03     18.6920E-03
            1935            2502     18.1762E-03     18.6920E-03
            1944            2502     18.1762E-03     18.6920E-03
            1944            2503     24.0969E-03     24.2767E-03
            1936            2503     24.0969E-03     24.2767E-03
            1945            2503     24.0969E-03     24.2767E-03
            1935            2503     24.0969E-03     24.2767E-03
            1937            2504     33.1488E-03     32.7627E-03
            1936            2504     33.1488E-03     32.7627E-03
            1945            2504     33.1488E-03     32.7627E-03
            1946            2504     33.1488E-03     32.7627E-03
            1938            2505     35.7521E-03     32.8841E-03
            1948            2505     35.7521E-03     32.8841E-03
            1947            2505     35.7521E-03     32.8841E-03
            1939            2505     35.7521E-03     32.8841E-03
            1949            2506     27.5488E-03     25.4922E-03
            1948            2506     27.5488E-03     25.4922E-03
            1939            2506     27.5488E-03     25.4922E-03
            1940            2506     27.5488E-03     25.4922E-03
            1950            2507     21.7080E-03     20.5857E-03
            1941            2507     21.7080E-03     20.5857E-03
            1949            2507     21.7080E-03     20.5857E-03
            1940            2507     21.7080E-03     20.5857E-03
            1951            2508     17.6661E-03     17.2548E-03
            1941            2508     17.6661E-03     17.2548E-03
            1942            2508     17.6661E-03     17.2548E-03
            1950            2508     17.6661E-03     17.2548E-03
            1951            2509     16.3505E-03     16.0572E-03
            1943            2509     16.3505E-03     16.0572E-03
            1942            2509     16.3505E-03     16.0572E-03
            1952            2509     16.3505E-03     16.0572E-03
            1943            2510     18.1249E-03     17.2821E-03
            1953            2510     18.1249E-03     17.2821E-03
            1944            2510     18.1249E-03     17.2821E-03
            1952            2510     18.1249E-03     17.2821E-03
            1945            2511     22.5745E-03     20.6508E-03
            1954            2511     22.5745E-03     20.6508E-03
            1953            2511     22.5745E-03     20.6508E-03
            1944            2511     22.5745E-03     20.6508E-03
            1946            2512     29.4770E-03     26.4959E-03
            1945            2512     29.4770E-03     26.4959E-03
            1954            2512     29.4770E-03     26.4959E-03
            1955            2512     29.4770E-03     26.4959E-03
            1956            2513     33.6500E-03     32.5010E-03
            1947            2513     33.6500E-03     32.5010E-03
            1948            2513     33.6500E-03     32.5010E-03
            1957            2513     33.6500E-03     32.5010E-03
            1948            2514     28.3195E-03     26.9707E-03
            1957            2514     28.3195E-03     26.9707E-03
            1958            2514     28.3195E-03     26.9707E-03
            1949            2514     28.3195E-03     26.9707E-03
            1950            2515     23.0911E-03     21.8418E-03
            1949            2515     23.0911E-03     21.8418E-03
            1959            2515     23.0911E-03     21.8418E-03
            1958            2515     23.0911E-03     21.8418E-03
            1960            2516     19.1272E-03     17.9672E-03
            1959            2516     19.1272E-03     17.9672E-03
            1951            2516     19.1272E-03     17.9672E-03
            1950            2516     19.1272E-03     17.9672E-03
            1960            2517     17.5503E-03     16.1742E-03
            1951            2517     17.5503E-03     16.1742E-03
            1952            2517     17.5503E-03     16.1742E-03
            1961            2517     17.5503E-03     16.1742E-03
            1962            2518     18.9095E-03     17.0463E-03
            1953            2518     18.9095E-03     17.0463E-03
            1952            2518     18.9095E-03     17.0463E-03
            1961            2518     18.9095E-03     17.0463E-03
            1954            2519     22.4583E-03     20.1208E-03
            1962            2519     22.4583E-03     20.1208E-03
            1963            2519     22.4583E-03     20.1208E-03
            1953            2519     22.4583E-03     20.1208E-03
            1963            2520     26.2114E-03     24.1553E-03
            1955            2520     26.2114E-03     24.1553E-03
            1954            2520     26.2114E-03     24.1553E-03
            1964            2520     26.2114E-03     24.1553E-03
            1965            2521     36.8364E-03     37.3329E-03
            1966            2521     36.8364E-03     37.3329E-03
            1956            2521     36.8364E-03     37.3329E-03
            1957            2521     36.8364E-03     37.3329E-03
            1966            2522     30.3202E-03     30.4605E-03
            1958            2522     30.3202E-03     30.4605E-03
            1957            2522     30.3202E-03     30.4605E-03
            1967            2522     30.3202E-03     30.4605E-03
            1967            2523     23.9183E-03     23.1768E-03
            1968            2523     23.9183E-03     23.1768E-03
            1959            2523     23.9183E-03     23.1768E-03
            1958            2523     23.9183E-03     23.1768E-03
            1960            2524     18.8664E-03     17.4476E-03
            1959            2524     18.8664E-03     17.4476E-03
            1969            2524     18.8664E-03     17.4476E-03
            1968            2524     18.8664E-03     17.4476E-03
            1970            2525     16.8442E-03     15.0838E-03
            1969            2525     16.8442E-03     15.0838E-03
            1961            2525     16.8442E-03     15.0838E-03
            1960            2525     16.8442E-03     15.0838E-03
            1962            2526     18.6933E-03     17.2194E-03
            1970            2526     18.6933E-03     17.2194E-03
            1971            2526     18.6933E-03     17.2194E-03
            1961            2526     18.6933E-03     17.2194E-03
            1972            2527     23.0765E-03     22.7516E-03
            1962            2527     23.0765E-03     22.7516E-03
            1971            2527     23.0765E-03     22.7516E-03
            1963            2527     23.0765E-03     22.7516E-03
            1964            2528     28.3344E-03     29.0508E-03
            1973            2528     28.3344E-03     29.0508E-03
            1963            2528     28.3344E-03     29.0508E-03
            1972            2528     28.3344E-03     29.0508E-03
            1975            2529     39.1419E-03     39.2582E-03
            1966            2529     39.1419E-03     39.2582E-03
            1974            2529     39.1419E-03     39.2582E-03
            1965            2529     39.1419E-03     39.2582E-03
            1976            2530     31.8040E-03     32.1417E-03
            1967            2530     31.8040E-03     32.1417E-03
            1975            2530     31.8040E-03     32.1417E-03
            1966            2530     31.8040E-03     32.1417E-03
            1977            2531     24.8892E-03     24.5757E-03
            1968            2531     24.8892E-03     24.5757E-03
            1967            2531     24.8892E-03     24.5757E-03
            1976            2531     24.8892E-03     24.5757E-03
            1978            2532     19.2351E-03     18.0672E-03
            1977            2532     19.2351E-03     18.0672E-03
            1968            2532     19.2351E-03     18.0672E-03
            1969            2532     19.2351E-03     18.0672E-03
            1969            2533     16.8989E-03     15.4568E-03
            1978            2533     16.8989E-03     15.4568E-03
            1970            2533     16.8989E-03     15.4568E-03
            1979            2533     16.8989E-03     15.4568E-03
            1971            2534     18.8434E-03     18.1758E-03
            1970            2534     18.8434E-03     18.1758E-03
            1979            2534     18.8434E-03     18.1758E-03
            1980            2534     18.8434E-03     18.1758E-03
            1980            2535     23.7459E-03     24.1914E-03
            1981            2535     23.7459E-03     24.1914E-03
            1972            2535     23.7459E-03     24.1914E-03
            1971            2535     23.7459E-03     24.1914E-03
            1973            2536     30.3825E-03     30.7776E-03
            1982            2536     30.3825E-03     30.7776E-03
            1972            2536     30.3825E-03     30.7776E-03
            1981            2536     30.3825E-03     30.7776E-03
            1983            2537     41.4245E-03     41.1572E-03
            1974            2537     41.4245E-03     41.1572E-03
            1984            2537     41.4245E-03     41.1572E-03
            1975            2537     41.4245E-03     41.1572E-03
            1985            2538     33.1734E-03     33.2055E-03
            1976            2538     33.1734E-03     33.2055E-03
            1975            2538     33.1734E-03     33.2055E-03
            1984            2538     33.1734E-03     33.2055E-03
            1976            2539     25.6949E-03     25.5039E-03
            1986            2539     25.6949E-03     25.5039E-03
            1977            2539     25.6949E-03     25.5039E-03
            1985            2539     25.6949E-03     25.5039E-03
            1986            2540     19.7434E-03     19.0021E-03
            1977            2540     19.7434E-03     19.0021E-03
            1978            2540     19.7434E-03     19.0021E-03
            1987            2540     19.7434E-03     19.0021E-03
            1978            2541     17.1505E-03     16.3275E-03
            1987            2541     17.1505E-03     16.3275E-03
            1979            2541     17.1505E-03     16.3275E-03
            1988            2541     17.1505E-03     16.3275E-03
            1989            2542     19.1333E-03     18.9745E-03
            1979            2542     19.1333E-03     18.9745E-03
            1980            2542     19.1333E-03     18.9745E-03
            1988            2542     19.1333E-03     18.9745E-03
            1989            2543     24.7333E-03     25.0528E-03
            1980            2543     24.7333E-03     25.0528E-03
            1981            2543     24.7333E-03     25.0528E-03
            1990            2543     24.7333E-03     25.0528E-03
            1990            2544     32.3713E-03     32.4694E-03
            1981            2544     32.3713E-03     32.4694E-03
            1991            2544     32.3713E-03     32.4694E-03
            1982            2544     32.3713E-03     32.4694E-03
            1992            2545     43.5548E-03     43.1050E-03
            1984            2545     43.5548E-03     43.1050E-03
            1983            2545     43.5548E-03     43.1050E-03
            1993            2545     43.5548E-03     43.1050E-03
            1994            2546     34.6052E-03     34.4661E-03
            1985            2546     34.6052E-03     34.4661E-03
            1993            2546     34.6052E-03     34.4661E-03
            1984            2546     34.6052E-03     34.4661E-03
            1995            2547     26.5351E-03     26.4109E-03
            1985            2547     26.5351E-03     26.4109E-03
            1994            2547     26.5351E-03     26.4109E-03
            1986            2547     26.5351E-03     26.4109E-03
            1996            2548     20.1359E-03     19.8382E-03
            1986            2548     20.1359E-03     19.8382E-03
            1987            2548     20.1359E-03     19.8382E-03
            1995            2548     20.1359E-03     19.8382E-03
            1997            2549     17.3924E-03     17.1570E-03
            1988            2549     17.3924E-03     17.1570E-03
            1996            2549     17.3924E-03     17.1570E-03
            1987            2549     17.3924E-03     17.1570E-03
            1997            2550     19.6662E-03     19.7796E-03
            1989            2550     19.6662E-03     19.7796E-03
            1998            2550     19.6662E-03     19.7796E-03
            1988            2550     19.6662E-03     19.7796E-03
            1998            2551     25.8832E-03     26.1402E-03
            1989            2551     25.8832E-03     26.1402E-03
            1999            2551     25.8832E-03     26.1402E-03
            1990            2551     25.8832E-03     26.1402E-03
            1991            2552     34.3094E-03     34.2098E-03
            1999            2552     34.3094E-03     34.2098E-03
            1990            2552     34.3094E-03     34.2098E-03
            2000            2552     34.3094E-03     34.2098E-03
            2002            2553     45.6701E-03     45.1400E-03
            1992            2553     45.6701E-03     45.1400E-03
            1993            2553     45.6701E-03     45.1400E-03
            2001            2553     45.6701E-03     45.1400E-03
            1993            2554     36.0887E-03     35.9521E-03
            1994            2554     36.0887E-03     35.9521E-03
            2002            2554     36.0887E-03     35.9521E-03
            2003            2554     36.0887E-03     35.9521E-03
            2004            2555     27.3467E-03     27.4078E-03
            1994            2555     27.3467E-03     27.4078E-03
            2003            2555     27.3467E-03     27.4078E-03
            1995            2555     27.3467E-03     27.4078E-03
            1996            2556     20.4919E-03     20.6566E-03
            2004            2556     20.4919E-03     20.6566E-03
            2005            2556     20.4919E-03     20.6566E-03
            1995            2556     20.4919E-03     20.6566E-03
            2006            2557     17.6205E-03     17.9267E-03
            1996            2557     17.6205E-03     17.9267E-03
            2005            2557     17.6205E-03     17.9267E-03
            1997            2557     17.6205E-03     17.9267E-03
            2007            2558     20.2399E-03     20.6537E-03
            1997            2558     20.2399E-03     20.6537E-03
            1998            2558     20.2399E-03     20.6537E-03
            2006            2558     20.2399E-03     20.6537E-03
            2008            2559     27.1944E-03     27.4506E-03
            2007            2559     27.1944E-03     27.4506E-03
            1998            2559     27.1944E-03     27.4506E-03
            1999            2559     27.1944E-03     27.4506E-03
            2000            2560     36.2522E-03     36.0814E-03
            2009            2560     36.2522E-03     36.0814E-03
            1999            2560     36.2522E-03     36.0814E-03
            2008            2560     36.2522E-03     36.0814E-03
            2011            2561     47.7939E-03     47.2855E-03
            2002            2561     47.7939E-03     47.2855E-03
            2001            2561     47.7939E-03     47.2855E-03
            2010            2561     47.7939E-03     47.2855E-03
            2011            2562     37.5039E-03     37.4996E-03
            2012            2562     37.5039E-03     37.4996E-03
            2002            2562     37.5039E-03     37.4996E-03
            2003            2562     37.5039E-03     37.4996E-03
            2003            2563     28.1337E-03     28.5581E-03
            2012            2563     28.1337E-03     28.5581E-03
            2004            2563     28.1337E-03     28.5581E-03
            2013            2563     28.1337E-03     28.5581E-03
            2005            2564     20.7427E-03     21.4934E-03
            2013            2564     20.7427E-03     21.4934E-03
            2014            2564     20.7427E-03     21.4934E-03
            2004            2564     20.7427E-03     21.4934E-03
            2005            2565     17.7577E-03     18.6687E-03
            2006            2565     17.7577E-03     18.6687E-03
            2015            2565     17.7577E-03     18.6687E-03
            2014            2565     17.7577E-03     18.6687E-03
            2006            2566     20.8437E-03     21.6277E-03
            2015            2566     20.8437E-03     21.6277E-03
            2007            2566     20.8437E-03     21.6277E-03
            2016            2566     20.8437E-03     21.6277E-03
            2017            2567     28.4606E-03     28.8509E-03
            2016            2567     28.4606E-03     28.8509E-03
            2008            2567     28.4606E-03     28.8509E-03
            2007            2567     28.4606E-03     28.8509E-03
            2018            2568     38.2397E-03     38.0667E-03
            2008            2568     38.2397E-03     38.0667E-03
            2009            2568     38.2397E-03     38.0667E-03
            2017            2568     38.2397E-03     38.0667E-03
            2011            2569     49.8047E-03     49.4620E-03
            2010            2569     49.8047E-03     49.4620E-03
            2019            2569     49.8047E-03     49.4620E-03
            2020            2569     49.8047E-03     49.4620E-03
            2021            2570     38.9898E-03     39.4243E-03
            2012            2570     38.9898E-03     39.4243E-03
            2011            2570     38.9898E-03     39.4243E-03
            2020            2570     38.9898E-03     39.4243E-03
            2012            2571     28.7504E-03     29.6683E-03
            2021            2571     28.7504E-03     29.6683E-03
            2022            2571     28.7504E-03     29.6683E-03
            2013            2571     28.7504E-03     29.6683E-03
            2023            2572     20.4514E-03     21.6816E-03
            2014            2572     20.4514E-03     21.6816E-03
            2013            2572     20.4514E-03     21.6816E-03
            2022            2572     20.4514E-03     21.6816E-03
            2015            2573     17.4161E-03     18.8839E-03
            2024            2573     17.4161E-03     18.8839E-03
            2023            2573     17.4161E-03     18.8839E-03
            2014            2573     17.4161E-03     18.8839E-03
            2016            2574     21.3292E-03     22.6535E-03
            2015            2574     21.3292E-03     22.6535E-03
            2024            2574     21.3292E-03     22.6535E-03
            2025            2574     21.3292E-03     22.6535E-03
            2025            2575     29.8218E-03     30.5544E-03
            2017            2575     29.8218E-03     30.5544E-03
            2026            2575     29.8218E-03     30.5544E-03
            2016            2575     29.8218E-03     30.5544E-03
            2018            2576     40.1110E-03     40.1156E-03
            2026            2576     40.1110E-03     40.1156E-03
            2017            2576     40.1110E-03     40.1156E-03
            2027            2576     40.1110E-03     40.1156E-03
            2019            2577     52.4943E-03     52.6680E-03
            2028            2577     52.4943E-03     52.6680E-03
            2020            2577     52.4943E-03     52.6680E-03
            2029            2577     52.4943E-03     52.6680E-03
            2020            2578     40.1609E-03     40.7655E-03
            2030            2578     40.1609E-03     40.7655E-03
            2021            2578     40.1609E-03     40.7655E-03
            2029            2578     40.1609E-03     40.7655E-03
            2030            2579     28.2608E-03     29.0061E-03
            2031            2579     28.2608E-03     29.0061E-03
            2021            2579     28.2608E-03     29.0061E-03
            2022            2579     28.2608E-03     29.0061E-03
            2032            2580     19.3692E-03     20.6235E-03
            2022            2580     19.3692E-03     20.6235E-03
            2031            2580     19.3692E-03     20.6235E-03
            2023            2580     19.3692E-03     20.6235E-03
            2032            2581     16.1742E-03     17.8358E-03
            2023            2581     16.1742E-03     17.8358E-03
            2033            2581     16.1742E-03     17.8358E-03
            2024            2581     16.1742E-03     17.8358E-03
            2025            2582     20.6772E-03     22.1441E-03
            2024            2582     20.6772E-03     22.1441E-03
            2034            2582     20.6772E-03     22.1441E-03
            2033            2582     20.6772E-03     22.1441E-03
            2035            2583     30.8790E-03     31.9055E-03
            2025            2583     30.8790E-03     31.9055E-03
            2034            2583     30.8790E-03     31.9055E-03
            2026            2583     30.8790E-03     31.9055E-03
            2035            2584     42.6270E-03     42.9725E-03
            2027            2584     42.6270E-03     42.9725E-03
            2036            2584     42.6270E-03     42.9725E-03
            2026            2584     42.6270E-03     42.9725E-03
            2029            2585     54.8597E-03     52.8573E-03
            2037            2585     54.8597E-03     52.8573E-03
            2038            2585     54.8597E-03     52.8573E-03
            2028            2585     54.8597E-03     52.8573E-03
            2038            2586     39.2571E-03     37.8589E-03
            2030            2586     39.2571E-03     37.8589E-03
            2039            2586     39.2571E-03     37.8589E-03
            2029            2586     39.2571E-03     37.8589E-03
            2039            2587     26.5068E-03     25.7885E-03
            2031            2587     26.5068E-03     25.7885E-03
            2030            2587     26.5068E-03     25.7885E-03
            2040            2587     26.5068E-03     25.7885E-03
            2041            2588     16.9231E-03     17.3503E-03
            2040            2588     16.9231E-03     17.3503E-03
            2031            2588     16.9231E-03     17.3503E-03
            2032            2588     16.9231E-03     17.3503E-03
            2033            2589     13.5140E-03     14.5445E-03
            2032            2589     13.5140E-03     14.5445E-03
            2041            2589     13.5140E-03     14.5445E-03
            2042            2589     13.5140E-03     14.5445E-03
            2042            2590     18.6497E-03     19.1654E-03
            2033            2590     18.6497E-03     19.1654E-03
            2034            2590     18.6497E-03     19.1654E-03
            2043            2590     18.6497E-03     19.1654E-03
            2034            2591     29.8437E-03     29.6174E-03
            2035            2591     29.8437E-03     29.6174E-03
            2043            2591     29.8437E-03     29.6174E-03
            2044            2591     29.8437E-03     29.6174E-03
            2045            2592     44.4813E-03     43.5335E-03
            2036            2592     44.4813E-03     43.5335E-03
            2035            2592     44.4813E-03     43.5335E-03
            2044            2592     44.4813E-03     43.5335E-03
            2047            2593     52.0837E-03     47.4627E-03
            2037            2593     52.0837E-03     47.4627E-03
            2038            2593     52.0837E-03     47.4627E-03
            2046            2593     52.0837E-03     47.4627E-03
            2039            2594     37.9106E-03     34.4413E-03
            2038            2594     37.9106E-03     34.4413E-03
            2047            2594     37.9106E-03     34.4413E-03
            2048            2594     37.9106E-03     34.4413E-03
            2048            2595     26.9392E-03     24.9119E-03
            2049            2595     26.9392E-03     24.9119E-03
            2040            2595     26.9392E-03     24.9119E-03
            2039            2595     26.9392E-03     24.9119E-03
            2050            2596     18.1752E-03     17.4154E-03
            2040            2596     18.1752E-03     17.4154E-03
            2049            2596     18.1752E-03     17.4154E-03
            2041            2596     18.1752E-03     17.4154E-03
            2042            2597     14.9239E-03     14.4581E-03
            2041            2597     14.9239E-03     14.4581E-03
            2050            2597     14.9239E-03     14.4581E-03
            2051            2597     14.9239E-03     14.4581E-03
            2042            2598     19.1410E-03     17.6172E-03
            2051            2598     19.1410E-03     17.6172E-03
            2043            2598     19.1410E-03     17.6172E-03
            2052            2598     19.1410E-03     17.6172E-03
            2043            2599     28.3333E-03     25.1017E-03
            2044            2599     28.3333E-03     25.1017E-03
            2052            2599     28.3333E-03     25.1017E-03
            2053            2599     28.3333E-03     25.1017E-03
            2054            2600     40.9614E-03     36.3760E-03
            2053            2600     40.9614E-03     36.3760E-03
            2044            2600     40.9614E-03     36.3760E-03
            2045            2600     40.9614E-03     36.3760E-03
            2047            2601     50.7488E-03     48.8677E-03
            2055            2601     50.7488E-03     48.8677E-03
            2056            2601     50.7488E-03     48.8677E-03
            2046            2601     50.7488E-03     48.8677E-03
            2057            2602     39.4155E-03     37.4585E-03
            2056            2602     39.4155E-03     37.4585E-03
            2047            2602     39.4155E-03     37.4585E-03
            2048            2602     39.4155E-03     37.4585E-03
            2049            2603     28.9192E-03     27.2033E-03
            2058            2603     28.9192E-03     27.2033E-03
            2048            2603     28.9192E-03     27.2033E-03
            2057            2603     28.9192E-03     27.2033E-03
            2050            2604     20.5142E-03     19.0029E-03
            2059            2604     20.5142E-03     19.0029E-03
            2058            2604     20.5142E-03     19.0029E-03
            2049            2604     20.5142E-03     19.0029E-03
            2059            2605     16.9941E-03     15.1436E-03
            2060            2605     16.9941E-03     15.1436E-03
            2051            2605     16.9941E-03     15.1436E-03
            2050            2605     16.9941E-03     15.1436E-03
            2060            2606     20.4145E-03     17.8874E-03
            2051            2606     20.4145E-03     17.8874E-03
            2052            2606     20.4145E-03     17.8874E-03
            2061            2606     20.4145E-03     17.8874E-03
            2062            2607     28.6737E-03     25.6464E-03
            2052            2607     28.6737E-03     25.6464E-03
            2061            2607     28.6737E-03     25.6464E-03
            2053            2607     28.6737E-03     25.6464E-03
            2053            2608     38.3025E-03     35.5689E-03
            2054            2608     38.3025E-03     35.5689E-03
            2062            2608     38.3025E-03     35.5689E-03
            2063            2608     38.3025E-03     35.5689E-03
            2065            2609     53.8460E-03     54.4415E-03
            2055            2609     53.8460E-03     54.4415E-03
            2064            2609     53.8460E-03     54.4415E-03
            2056            2609     53.8460E-03     54.4415E-03
            2065            2610     41.9526E-03     42.3175E-03
            2066            2610     41.9526E-03     42.3175E-03
            2057            2610     41.9526E-03     42.3175E-03
            2056            2610     41.9526E-03     42.3175E-03
            2057            2611     30.0522E-03     29.3988E-03
            2066            2611     30.0522E-03     29.3988E-03
            2067            2611     30.0522E-03     29.3988E-03
            2058            2611     30.0522E-03     29.3988E-03
            2068            2612     19.9615E-03     18.3124E-03
            2067            2612     19.9615E-03     18.3124E-03
            2059            2612     19.9615E-03     18.3124E-03
            2058            2612     19.9615E-03     18.3124E-03
            2069            2613     15.6326E-03     13.4003E-03
            2068            2613     15.6326E-03     13.4003E-03
            2060            2613     15.6326E-03     13.4003E-03
            2059            2613     15.6326E-03     13.4003E-03
            2060            2614     19.8928E-03     18.2593E-03
            2070            2614     19.8928E-03     18.2593E-03
            2061            2614     19.8928E-03     18.2593E-03
            2069            2614     19.8928E-03     18.2593E-03
            2070            2615     29.5044E-03     29.4593E-03
            2061            2615     29.5044E-03     29.4593E-03
            2062            2615     29.5044E-03     29.4593E-03
            2071            2615     29.5044E-03     29.4593E-03
            2071            2616     40.4082E-03     41.3226E-03
            2072            2616     40.4082E-03     41.3226E-03
            2062            2616     40.4082E-03     41.3226E-03
            2063            2616     40.4082E-03     41.3226E-03
            2074            2617     55.8464E-03     55.8970E-03
            2073            2617     55.8464E-03     55.8970E-03
            2065            2617     55.8464E-03     55.8970E-03
            2064            2617     55.8464E-03     55.8970E-03
            2066            2618     43.4814E-03     44.0494E-03
            2074            2618     43.4814E-03     44.0494E-03
            2075            2618     43.4814E-03     44.0494E-03
            2065            2618     43.4814E-03     44.0494E-03
            2067            2619     31.1981E-03     31.1369E-03
            2066            2619     31.1981E-03     31.1369E-03
            2075            2619     31.1981E-03     31.1369E-03
            2076            2619     31.1981E-03     31.1369E-03
            2077            2620     20.2635E-03     18.9687E-03
            2076            2620     20.2635E-03     18.9687E-03
            2067            2620     20.2635E-03     18.9687E-03
            2068            2620     20.2635E-03     18.9687E-03
            2077            2621     15.4131E-03     13.6465E-03
            2069            2621     15.4131E-03     13.6465E-03
            2068            2621     15.4131E-03     13.6465E-03
            2078            2621     15.4131E-03     13.6465E-03
            2079            2622     19.9172E-03     19.3473E-03
            2078            2622     19.9172E-03     19.3473E-03
            2069            2622     19.9172E-03     19.3473E-03
            2070            2622     19.9172E-03     19.3473E-03
            2071            2623     30.1947E-03     30.9662E-03
            2079            2623     30.1947E-03     30.9662E-03
            2070            2623     30.1947E-03     30.9662E-03
            2080            2623     30.1947E-03     30.9662E-03
            2080            2624     42.2708E-03     42.6879E-03
            2072            2624     42.2708E-03     42.6879E-03
            2081            2624     42.2708E-03     42.6879E-03
            2071            2624     42.2708E-03     42.6879E-03
            2083            2625     57.9384E-03     57.5082E-03
            2082            2625     57.9384E-03     57.5082E-03
            2073            2625     57.9384E-03     57.5082E-03
            2074            2625     57.9384E-03     57.5082E-03
            2084            2626     44.7388E-03     44.8206E-03
            2075            2626     44.7388E-03     44.8206E-03
            2074            2626     44.7388E-03     44.8206E-03
            2083            2626     44.7388E-03     44.8206E-03
            2075            2627     32.0123E-03     31.9627E-03
            2076            2627     32.0123E-03     31.9627E-03
            2085            2627     32.0123E-03     31.9627E-03
            2084            2627     32.0123E-03     31.9627E-03
            2086            2628     20.7941E-03     19.9653E-03
            2076            2628     20.7941E-03     19.9653E-03
            2085            2628     20.7941E-03     19.9653E-03
            2077            2628     20.7941E-03     19.9653E-03
            2087            2629     15.6008E-03     14.6036E-03
            2086            2629     15.6008E-03     14.6036E-03
            2077            2629     15.6008E-03     14.6036E-03
            2078            2629     15.6008E-03     14.6036E-03
            2088            2630     20.1452E-03     20.0915E-03
            2087            2630     20.1452E-03     20.0915E-03
            2078            2630     20.1452E-03     20.0915E-03
            2079            2630     20.1452E-03     20.0915E-03
            2079            2631     31.1083E-03     31.5800E-03
            2088            2631     31.1083E-03     31.5800E-03
            2080            2631     31.1083E-03     31.5800E-03
            2089            2631     31.1083E-03     31.5800E-03
            2080            2632     44.0793E-03     44.1205E-03
            2081            2632     44.0793E-03     44.1205E-03
            2090            2632     44.0793E-03     44.1205E-03
            2089            2632     44.0793E-03     44.1205E-03
            2082            2633     59.8069E-03     59.1687E-03
            2092            2633     59.8069E-03     59.1687E-03
            2083            2633     59.8069E-03     59.1687E-03
            2091            2633     59.8069E-03     59.1687E-03
            2084            2634     46.0499E-03     45.8852E-03
            2092            2634     46.0499E-03     45.8852E-03
            2093            2634     46.0499E-03     45.8852E-03
            2083            2634     46.0499E-03     45.8852E-03
            2084            2635     32.8233E-03     32.7393E-03
            2093            2635     32.8233E-03     32.7393E-03
            2085            2635     32.8233E-03     32.7393E-03
            2094            2635     32.8233E-03     32.7393E-03
            2095            2636     21.2006E-03     20.8454E-03
            2086            2636     21.2006E-03     20.8454E-03
            2094            2636     21.2006E-03     20.8454E-03
            2085            2636     21.2006E-03     20.8454E-03
            2087            2637     15.8682E-03     15.5795E-03
            2095            2637     15.8682E-03     15.5795E-03
            2086            2637     15.8682E-03     15.5795E-03
            2096            2637     15.8682E-03     15.5795E-03
            2087            2638     20.6788E-03     20.8920E-03
            2096            2638     20.6788E-03     20.8920E-03
            2088            2638     20.6788E-03     20.8920E-03
            2097            2638     20.6788E-03     20.8920E-03
            2097            2639     32.1721E-03     32.5140E-03
            2088            2639     32.1721E-03     32.5140E-03
            2089            2639     32.1721E-03     32.5140E-03
            2098            2639     32.1721E-03     32.5140E-03
            2089            2640     45.7776E-03     45.5952E-03
            2090            2640     45.7776E-03     45.5952E-03
            2098            2640     45.7776E-03     45.5952E-03
            2099            2640     45.7776E-03     45.5952E-03
            2091            2641     61.6416E-03     60.9317E-03
            2092            2641     61.6416E-03     60.9317E-03
            2101            2641     61.6416E-03     60.9317E-03
            2100            2641     61.6416E-03     60.9317E-03
            2102            2642     47.3756E-03     47.2126E-03
            2092            2642     47.3756E-03     47.2126E-03
            2101            2642     47.3756E-03     47.2126E-03
            2093            2642     47.3756E-03     47.2126E-03
            2094            2643     33.5980E-03     33.6905E-03
            2102            2643     33.5980E-03     33.6905E-03
            2093            2643     33.5980E-03     33.6905E-03
            2103            2643     33.5980E-03     33.6905E-03
            2104            2644     21.5971E-03     21.7868E-03
            2094            2644     21.5971E-03     21.7868E-03
            2095            2644     21.5971E-03     21.7868E-03
            2103            2644     21.5971E-03     21.7868E-03
            2105            2645     16.1512E-03     16.5507E-03
            2096            2645     16.1512E-03     16.5507E-03
            2095            2645     16.1512E-03     16.5507E-03
            2104            2645     16.1512E-03     16.5507E-03
            2105            2646     21.2678E-03     21.8418E-03
            2097            2646     21.2678E-03     21.8418E-03
            2096            2646     21.2678E-03     21.8418E-03
            2106            2646     21.2678E-03     21.8418E-03
            2106            2647     33.3833E-03     33.7277E-03
            2107            2647     33.3833E-03     33.7277E-03
            2097            2647     33.3833E-03     33.7277E-03
            2098            2647     33.3833E-03     33.7277E-03
            2108            2648     47.4661E-03     47.2229E-03
            2098            2648     47.4661E-03     47.2229E-03
            2099            2648     47.4661E-03     47.2229E-03
            2107            2648     47.4661E-03     47.2229E-03
            2100            2649     63.4626E-03     62.8199E-03
            2110            2649     63.4626E-03     62.8199E-03
            2101            2649     63.4626E-03     62.8199E-03
            2109            2649     63.4626E-03     62.8199E-03
            2111            2650     48.6116E-03     48.6509E-03
            2101            2650     48.6116E-03     48.6509E-03
            2102            2650     48.6116E-03     48.6509E-03
            2110            2650     48.6116E-03     48.6509E-03
            2103            2651     34.3488E-03     34.8867E-03
            2112            2651     34.3488E-03     34.8867E-03
            2102            2651     34.3488E-03     34.8867E-03
            2111            2651     34.3488E-03     34.8867E-03
            2113            2652     21.8805E-03     22.7916E-03
            2112            2652     21.8805E-03     22.7916E-03
            2103            2652     21.8805E-03     22.7916E-03
            2104            2652     21.8805E-03     22.7916E-03
            2113            2653     16.3538E-03     17.5459E-03
            2104            2653     16.3538E-03     17.5459E-03
            2114            2653     16.3538E-03     17.5459E-03
            2105            2653     16.3538E-03     17.5459E-03
            2105            2654     21.9169E-03     22.9950E-03
            2115            2654     21.9169E-03     22.9950E-03
            2106            2654     21.9169E-03     22.9950E-03
            2114            2654     21.9169E-03     22.9950E-03
            2107            2655     34.5416E-03     35.0899E-03
            2116            2655     34.5416E-03     35.0899E-03
            2115            2655     34.5416E-03     35.0899E-03
            2106            2655     34.5416E-03     35.0899E-03
            2107            2656     49.1831E-03     48.9884E-03
            2116            2656     49.1831E-03     48.9884E-03
            2117            2656     49.1831E-03     48.9884E-03
            2108            2656     49.1831E-03     48.9884E-03
            2118            2657     65.1008E-03     64.7405E-03
            2110            2657     65.1008E-03     64.7405E-03
            2119            2657     65.1008E-03     64.7405E-03
            2109            2657     65.1008E-03     64.7405E-03
            2119            2658     49.9173E-03     50.5510E-03
            2111            2658     49.9173E-03     50.5510E-03
            2110            2658     49.9173E-03     50.5510E-03
            2120            2658     49.9173E-03     50.5510E-03
            2120            2659     34.8987E-03     35.9919E-03
            2111            2659     34.8987E-03     35.9919E-03
            2121            2659     34.8987E-03     35.9919E-03
            2112            2659     34.8987E-03     35.9919E-03
            2121            2660     21.5614E-03     23.0235E-03
            2113            2660     21.5614E-03     23.0235E-03
            2112            2660     21.5614E-03     23.0235E-03
            2122            2660     21.5614E-03     23.0235E-03
            2114            2661     16.0393E-03     17.9440E-03
            2122            2661     16.0393E-03     17.9440E-03
            2123            2661     16.0393E-03     17.9440E-03
            2113            2661     16.0393E-03     17.9440E-03
            2115            2662     22.4359E-03     24.2126E-03
            2124            2662     22.4359E-03     24.2126E-03
            2114            2662     22.4359E-03     24.2126E-03
            2123            2662     22.4359E-03     24.2126E-03
            2115            2663     35.7934E-03     36.8447E-03
            2124            2663     35.7934E-03     36.8447E-03
            2125            2663     35.7934E-03     36.8447E-03
            2116            2663     35.7934E-03     36.8447E-03
            2125            2664     50.7334E-03     50.8164E-03
            2116            2664     50.7334E-03     50.8164E-03
            2117            2664     50.7334E-03     50.8164E-03
            2126            2664     50.7334E-03     50.8164E-03
            2127            2665     67.4465E-03     67.7542E-03
            2119            2665     67.4465E-03     67.7542E-03
            2128            2665     67.4465E-03     67.7542E-03
            2118            2665     67.4465E-03     67.7542E-03
            2119            2666     50.7950E-03     51.5229E-03
            2128            2666     50.7950E-03     51.5229E-03
            2120            2666     50.7950E-03     51.5229E-03
            2129            2666     50.7950E-03     51.5229E-03
            2120            2667     34.2265E-03     34.9297E-03
            2130            2667     34.2265E-03     34.9297E-03
            2121            2667     34.2265E-03     34.9297E-03
            2129            2667     34.2265E-03     34.9297E-03
            2131            2668     20.4190E-03     21.8334E-03
            2130            2668     20.4190E-03     21.8334E-03
            2121            2668     20.4190E-03     21.8334E-03
            2122            2668     20.4190E-03     21.8334E-03
            2123            2669     14.7415E-03     16.8324E-03
            2132            2669     14.7415E-03     16.8324E-03
            2122            2669     14.7415E-03     16.8324E-03
            2131            2669     14.7415E-03     16.8324E-03
            2123            2670     21.6980E-03     23.5025E-03
            2124            2670     21.6980E-03     23.5025E-03
            2132            2670     21.6980E-03     23.5025E-03
            2133            2670     21.6980E-03     23.5025E-03
            2124            2671     36.6520E-03     37.9611E-03
            2125            2671     36.6520E-03     37.9611E-03
            2133            2671     36.6520E-03     37.9611E-03
            2134            2671     36.6520E-03     37.9611E-03
            2126            2672     52.8869E-03     53.4667E-03
            2125            2672     52.8869E-03     53.4667E-03
            2135            2672     52.8869E-03     53.4667E-03
            2134            2672     52.8869E-03     53.4667E-03
            2136            2673     69.2204E-03     66.5405E-03
            2128            2673     69.2204E-03     66.5405E-03
            2127            2673     69.2204E-03     66.5405E-03
            2137            2673     69.2204E-03     66.5405E-03
            2128            2674     49.3040E-03     47.2153E-03
            2137            2674     49.3040E-03     47.2153E-03
            2129            2674     49.3040E-03     47.2153E-03
            2138            2674     49.3040E-03     47.2153E-03
            2129            2675     32.2226E-03     30.9101E-03
            2139            2675     32.2226E-03     30.9101E-03
            2130            2675     32.2226E-03     30.9101E-03
            2138            2675     32.2226E-03     30.9101E-03
            2131            2676     17.8286E-03     18.0579E-03
            2140            2676     17.8286E-03     18.0579E-03
            2139            2676     17.8286E-03     18.0579E-03
            2130            2676     17.8286E-03     18.0579E-03
            2131            2677     11.9117E-03     13.0082E-03
            2141            2677     11.9117E-03     13.0082E-03
            2140            2677     11.9117E-03     13.0082E-03
            2132            2677     11.9117E-03     13.0082E-03
            2132            2678     19.5590E-03     19.8450E-03
            2133            2678     19.5590E-03     19.8450E-03
            2142            2678     19.5590E-03     19.8450E-03
            2141            2678     19.5590E-03     19.8450E-03
            2142            2679     35.3018E-03     34.5608E-03
            2133            2679     35.3018E-03     34.5608E-03
            2143            2679     35.3018E-03     34.5608E-03
            2134            2679     35.3018E-03     34.5608E-03
            2144            2680     54.1772E-03     52.7031E-03
            2143            2680     54.1772E-03     52.7031E-03
            2135            2680     54.1772E-03     52.7031E-03
            2134            2680     54.1772E-03     52.7031E-03
            2146            2681     66.6443E-03     60.6032E-03
            2137            2681     66.6443E-03     60.6032E-03
            2145            2681     66.6443E-03     60.6032E-03
            2136            2681     66.6443E-03     60.6032E-03
            2146            2682     47.7274E-03     43.1007E-03
            2138            2682     47.7274E-03     43.1007E-03
            2137            2682     47.7274E-03     43.1007E-03
            2147            2682     47.7274E-03     43.1007E-03
            2138            2683     32.6167E-03     29.7986E-03
            2139            2683     32.6167E-03     29.7986E-03
            2148            2683     32.6167E-03     29.7986E-03
            2147            2683     32.6167E-03     29.7986E-03
            2148            2684     19.4834E-03     18.3326E-03
            2140            2684     19.4834E-03     18.3326E-03
            2149            2684     19.4834E-03     18.3326E-03
            2139            2684     19.4834E-03     18.3326E-03
            2149            2685     14.0242E-03     13.2833E-03
            2150            2685     14.0242E-03     13.2833E-03
            2141            2685     14.0242E-03     13.2833E-03
            2140            2685     14.0242E-03     13.2833E-03
            2151            2686     20.3998E-03     18.2201E-03
            2142            2686     20.3998E-03     18.2201E-03
            2141            2686     20.3998E-03     18.2201E-03
            2150            2686     20.3998E-03     18.2201E-03
            2143            2687     33.7453E-03     29.4451E-03
            2151            2687     33.7453E-03     29.4451E-03
            2152            2687     33.7453E-03     29.4451E-03
            2142            2687     33.7453E-03     29.4451E-03
            2153            2688     50.8985E-03     45.0562E-03
            2143            2688     50.8985E-03     45.0562E-03
            2152            2688     50.8985E-03     45.0562E-03
            2144            2688     50.8985E-03     45.0562E-03
            2155            2689     66.0380E-03     63.6107E-03
            2146            2689     66.0380E-03     63.6107E-03
            2154            2689     66.0380E-03     63.6107E-03
            2145            2689     66.0380E-03     63.6107E-03
            2147            2690     49.7910E-03     47.4104E-03
            2156            2690     49.7910E-03     47.4104E-03
            2155            2690     49.7910E-03     47.4104E-03
            2146            2690     49.7910E-03     47.4104E-03
            2156            2691     34.8705E-03     32.8546E-03
            2157            2691     34.8705E-03     32.8546E-03
            2148            2691     34.8705E-03     32.8546E-03
            2147            2691     34.8705E-03     32.8546E-03
            2158            2692     22.3082E-03     20.6380E-03
            2157            2692     22.3082E-03     20.6380E-03
            2149            2692     22.3082E-03     20.6380E-03
            2148            2692     22.3082E-03     20.6380E-03
            2149            2693     16.6015E-03     14.4964E-03
            2150            2693     16.6015E-03     14.4964E-03
            2159            2693     16.6015E-03     14.4964E-03
            2158            2693     16.6015E-03     14.4964E-03
            2151            2694     21.8900E-03     18.9708E-03
            2159            2694     21.8900E-03     18.9708E-03
            2160            2694     21.8900E-03     18.9708E-03
            2150            2694     21.8900E-03     18.9708E-03
            2152            2695     34.4322E-03     31.0380E-03
            2151            2695     34.4322E-03     31.0380E-03
            2160            2695     34.4322E-03     31.0380E-03
            2161            2695     34.4322E-03     31.0380E-03
            2162            2696     48.8890E-03     45.7461E-03
            2161            2696     48.8890E-03     45.7461E-03
            2152            2696     48.8890E-03     45.7461E-03
            2153            2696     48.8890E-03     45.7461E-03
            2164            2697     68.9581E-03     69.6661E-03
            2155            2697     68.9581E-03     69.6661E-03
            2154            2697     68.9581E-03     69.6661E-03
            2163            2697     68.9581E-03     69.6661E-03
            2156            2698     52.7917E-03     53.4051E-03
            2165            2698     52.7917E-03     53.4051E-03
            2155            2698     52.7917E-03     53.4051E-03
            2164            2698     52.7917E-03     53.4051E-03
            2157            2699     36.3908E-03     35.9606E-03
            2156            2699     36.3908E-03     35.9606E-03
            2166            2699     36.3908E-03     35.9606E-03
            2165            2699     36.3908E-03     35.9606E-03
            2157            2700     21.6639E-03     20.0879E-03
            2158            2700     21.6639E-03     20.0879E-03
            2167            2700     21.6639E-03     20.0879E-03
            2166            2700     21.6639E-03     20.0879E-03
            2159            2701     14.8193E-03     12.5024E-03
            2167            2701     14.8193E-03     12.5024E-03
            2158            2701     14.8193E-03     12.5024E-03
            2168            2701     14.8193E-03     12.5024E-03
            2168            2702     21.2346E-03     19.7247E-03
            2160            2702     21.2346E-03     19.7247E-03
            2159            2702     21.2346E-03     19.7247E-03
            2169            2702     21.2346E-03     19.7247E-03
            2161            2703     35.4687E-03     35.7851E-03
            2160            2703     35.4687E-03     35.7851E-03
            2170            2703     35.4687E-03     35.7851E-03
            2169            2703     35.4687E-03     35.7851E-03
            2171            2704     50.8725E-03     52.0014E-03
            2170            2704     50.8725E-03     52.0014E-03
            2161            2704     50.8725E-03     52.0014E-03
            2162            2704     50.8725E-03     52.0014E-03
            2163            2705     70.6118E-03     70.6443E-03
            2172            2705     70.6118E-03     70.6443E-03
            2164            2705     70.6118E-03     70.6443E-03
            2173            2705     70.6118E-03     70.6443E-03
            2165            2706     54.2793E-03     55.1358E-03
            2173            2706     54.2793E-03     55.1358E-03
            2164            2706     54.2793E-03     55.1358E-03
            2174            2706     54.2793E-03     55.1358E-03
            2166            2707     37.6887E-03     38.0152E-03
            2165            2707     37.6887E-03     38.0152E-03
            2174            2707     37.6887E-03     38.0152E-03
            2175            2707     37.6887E-03     38.0152E-03
            2175            2708     22.0463E-03     20.9588E-03
            2167            2708     22.0463E-03     20.9588E-03
            2176            2708     22.0463E-03     20.9588E-03
            2166            2708     22.0463E-03     20.9588E-03
            2177            2709     14.4540E-03     12.8061E-03
            2167            2709     14.4540E-03     12.8061E-03
            2176            2709     14.4540E-03     12.8061E-03
            2168            2709     14.4540E-03     12.8061E-03
            2168            2710     21.1237E-03     20.9167E-03
            2177            2710     21.1237E-03     20.9167E-03
            2178            2710     21.1237E-03     20.9167E-03
            2169            2710     21.1237E-03     20.9167E-03
            2179            2711     36.1020E-03     37.2720E-03
            2178            2711     36.1020E-03     37.2720E-03
            2169            2711     36.1020E-03     37.2720E-03
            2170            2711     36.1020E-03     37.2720E-03
            2170            2712     52.4760E-03     52.9758E-03
            2171            2712     52.4760E-03     52.9758E-03
            2179            2712     52.4760E-03     52.9758E-03
            2180            2712     52.4760E-03     52.9758E-03
            2181            2713     72.4233E-03     71.9767E-03
            2172            2713     72.4233E-03     71.9767E-03
            2173            2713     72.4233E-03     71.9767E-03
            2182            2713     72.4233E-03     71.9767E-03
            2173            2714     55.3609E-03     55.6559E-03
            2183            2714     55.3609E-03     55.6559E-03
            2182            2714     55.3609E-03     55.6559E-03
            2174            2714     55.3609E-03     55.6559E-03
            2175            2715     38.5043E-03     38.8257E-03
            2184            2715     38.5043E-03     38.8257E-03
            2183            2715     38.5043E-03     38.8257E-03
            2174            2715     38.5043E-03     38.8257E-03
            2185            2716     22.5494E-03     21.9641E-03
            2184            2716     22.5494E-03     21.9641E-03
            2176            2716     22.5494E-03     21.9641E-03
            2175            2716     22.5494E-03     21.9641E-03
            2186            2717     14.5820E-03     13.8242E-03
            2176            2717     14.5820E-03     13.8242E-03
            2177            2717     14.5820E-03     13.8242E-03
            2185            2717     14.5820E-03     13.8242E-03
            2187            2718     21.3268E-03     21.6911E-03
            2186            2718     21.3268E-03     21.6911E-03
            2177            2718     21.3268E-03     21.6911E-03
            2178            2718     21.3268E-03     21.6911E-03
            2179            2719     36.8569E-03     37.6500E-03
            2187            2719     36.8569E-03     37.6500E-03
            2178            2719     36.8569E-03     37.6500E-03
            2188            2719     36.8569E-03     37.6500E-03
            2188            2720     54.0295E-03     54.1641E-03
            2189            2720     54.0295E-03     54.1641E-03
            2180            2720     54.0295E-03     54.1641E-03
            2179            2720     54.0295E-03     54.1641E-03
            2190            2721     74.0633E-03     73.4238E-03
            2181            2721     74.0633E-03     73.4238E-03
            2182            2721     74.0633E-03     73.4238E-03
            2191            2721     74.0633E-03     73.4238E-03
            2182            2722     56.5315E-03     56.6641E-03
            2192            2722     56.5315E-03     56.6641E-03
            2183            2722     56.5315E-03     56.6641E-03
            2191            2722     56.5315E-03     56.6641E-03
            2183            2723     39.1692E-03     39.4701E-03
            2193            2723     39.1692E-03     39.4701E-03
            2192            2723     39.1692E-03     39.4701E-03
            2184            2723     39.1692E-03     39.4701E-03
            2193            2724     22.9719E-03     22.9896E-03
            2194            2724     22.9719E-03     22.9896E-03
            2184            2724     22.9719E-03     22.9896E-03
            2185            2724     22.9719E-03     22.9896E-03
            2186            2725     14.8701E-03     15.0248E-03
            2195            2725     14.8701E-03     15.0248E-03
            2185            2725     14.8701E-03     15.0248E-03
            2194            2725     14.8701E-03     15.0248E-03
            2196            2726     21.7315E-03     22.4594E-03
            2186            2726     21.7315E-03     22.4594E-03
            2187            2726     21.7315E-03     22.4594E-03
            2195            2726     21.7315E-03     22.4594E-03
            2188            2727     37.8094E-03     38.5465E-03
            2197            2727     37.8094E-03     38.5465E-03
            2196            2727     37.8094E-03     38.5465E-03
            2187            2727     37.8094E-03     38.5465E-03
            2188            2728     55.5163E-03     55.4520E-03
            2189            2728     55.5163E-03     55.4520E-03
            2198            2728     55.5163E-03     55.4520E-03
            2197            2728     55.5163E-03     55.4520E-03
            2191            2729     75.5569E-03     74.9480E-03
            2199            2729     75.5569E-03     74.9480E-03
            2190            2729     75.5569E-03     74.9480E-03
            2200            2729     75.5569E-03     74.9480E-03
            2201            2730     57.5491E-03     57.7882E-03
            2200            2730     57.5491E-03     57.7882E-03
            2191            2730     57.5491E-03     57.7882E-03
            2192            2730     57.5491E-03     57.7882E-03
            2202            2731     39.8305E-03     40.5211E-03
            2192            2731     39.8305E-03     40.5211E-03
            2193            2731     39.8305E-03     40.5211E-03
            2201            2731     39.8305E-03     40.5211E-03
            2194            2732     23.2754E-03     24.0965E-03
            2202            2732     23.2754E-03     24.0965E-03
            2203            2732     23.2754E-03     24.0965E-03
            2193            2732     23.2754E-03     24.0965E-03
            2195            2733     15.0801E-03     16.2432E-03
            2204            2733     15.0801E-03     16.2432E-03
            2203            2733     15.0801E-03     16.2432E-03
            2194            2733     15.0801E-03     16.2432E-03
            2205            2734     22.2815E-03     23.6326E-03
            2196            2734     22.2815E-03     23.6326E-03
            2195            2734     22.2815E-03     23.6326E-03
            2204            2734     22.2815E-03     23.6326E-03
            2205            2735     38.7734E-03     39.6385E-03
            2206            2735     38.7734E-03     39.6385E-03
            2196            2735     38.7734E-03     39.6385E-03
            2197            2735     38.7734E-03     39.6385E-03
            2198            2736     56.9074E-03     56.8749E-03
            2207            2736     56.9074E-03     56.8749E-03
            2197            2736     56.9074E-03     56.8749E-03
            2206            2736     56.9074E-03     56.8749E-03
            2208            2737     76.8765E-03     76.5572E-03
            2209            2737     76.8765E-03     76.5572E-03
            2200            2737     76.8765E-03     76.5572E-03
            2199            2737     76.8765E-03     76.5572E-03
            2210            2738     58.6356E-03     59.4932E-03
            2200            2738     58.6356E-03     59.4932E-03
            2209            2738     58.6356E-03     59.4932E-03
            2201            2738     58.6356E-03     59.4932E-03
            2210            2739     40.2576E-03     41.4472E-03
            2211            2739     40.2576E-03     41.4472E-03
            2202            2739     40.2576E-03     41.4472E-03
            2201            2739     40.2576E-03     41.4472E-03
            2211            2740     22.9131E-03     24.3189E-03
            2212            2740     22.9131E-03     24.3189E-03
            2203            2740     22.9131E-03     24.3189E-03
            2202            2740     22.9131E-03     24.3189E-03
            2212            2741     14.7992E-03     16.8280E-03
            2203            2741     14.7992E-03     16.8280E-03
            2213            2741     14.7992E-03     16.8280E-03
            2204            2741     14.7992E-03     16.8280E-03
            2214            2742     22.7865E-03     24.9117E-03
            2205            2742     22.7865E-03     24.9117E-03
            2204            2742     22.7865E-03     24.9117E-03
            2213            2742     22.7865E-03     24.9117E-03
            2205            2743     39.8429E-03     41.2608E-03
            2206            2743     39.8429E-03     41.2608E-03
            2214            2743     39.8429E-03     41.2608E-03
            2215            2743     39.8429E-03     41.2608E-03
            2215            2744     58.1552E-03     58.4020E-03
            2207            2744     58.1552E-03     58.4020E-03
            2206            2744     58.1552E-03     58.4020E-03
            2216            2744     58.1552E-03     58.4020E-03
            2218            2745     78.8605E-03     79.2987E-03
            2209            2745     78.8605E-03     79.2987E-03
            2217            2745     78.8605E-03     79.2987E-03
            2208            2745     78.8605E-03     79.2987E-03
            2209            2746     59.2310E-03     60.0464E-03
            2218            2746     59.2310E-03     60.0464E-03
            2219            2746     59.2310E-03     60.0464E-03
            2210            2746     59.2310E-03     60.0464E-03
            2219            2747     39.4089E-03     39.9850E-03
            2210            2747     39.4089E-03     39.9850E-03
            2211            2747     39.4089E-03     39.9850E-03
            2220            2747     39.4089E-03     39.9850E-03
            2211            2748     21.7668E-03     23.0499E-03
            2220            2748     21.7668E-03     23.0499E-03
            2221            2748     21.7668E-03     23.0499E-03
            2212            2748     21.7668E-03     23.0499E-03
            2221            2749     13.5449E-03     15.7388E-03
            2222            2749     13.5449E-03     15.7388E-03
            2213            2749     13.5449E-03     15.7388E-03
            2212            2749     13.5449E-03     15.7388E-03
            2223            2750     22.0146E-03     24.0208E-03
            2222            2750     22.0146E-03     24.0208E-03
            2213            2750     22.0146E-03     24.0208E-03
            2214            2750     22.0146E-03     24.0208E-03
            2224            2751     40.5180E-03     42.0705E-03
            2215            2751     40.5180E-03     42.0705E-03
            2214            2751     40.5180E-03     42.0705E-03
            2223            2751     40.5180E-03     42.0705E-03
            2216            2752     59.9238E-03     60.7539E-03
            2224            2752     59.9238E-03     60.7539E-03
            2225            2752     59.9238E-03     60.7539E-03
            2215            2752     59.9238E-03     60.7539E-03
            2218            2753     80.0911E-03     76.8892E-03
            2226            2753     80.0911E-03     76.8892E-03
            2227            2753     80.0911E-03     76.8892E-03
            2217            2753     80.0911E-03     76.8892E-03
            2219            2754     57.2472E-03     54.5936E-03
            2218            2754     57.2472E-03     54.5936E-03
            2228            2754     57.2472E-03     54.5936E-03
            2227            2754     57.2472E-03     54.5936E-03
            2228            2755     37.2438E-03     35.3867E-03
            2220            2755     37.2438E-03     35.3867E-03
            2229            2755     37.2438E-03     35.3867E-03
            2219            2755     37.2438E-03     35.3867E-03
            2221            2756     19.3814E-03     19.2028E-03
            2230            2756     19.3814E-03     19.2028E-03
            2229            2756     19.3814E-03     19.2028E-03
            2220            2756     19.3814E-03     19.2028E-03
            2230            2757     11.0201E-03     11.8763E-03
            2222            2757     11.0201E-03     11.8763E-03
            2221            2757     11.0201E-03     11.8763E-03
            2231            2757     11.0201E-03     11.8763E-03
            2231            2758     20.0032E-03     19.9951E-03
            2232            2758     20.0032E-03     19.9951E-03
            2222            2758     20.0032E-03     19.9951E-03
            2223            2758     20.0032E-03     19.9951E-03
            2223            2759     38.9758E-03     37.8201E-03
            2232            2759     38.9758E-03     37.8201E-03
            2224            2759     38.9758E-03     37.8201E-03
            2233            2759     38.9758E-03     37.8201E-03
            2224            2760     60.6941E-03     58.8438E-03
            2225            2760     60.6941E-03     58.8438E-03
            2234            2760     60.6941E-03     58.8438E-03
            2233            2760     60.6941E-03     58.8438E-03
            2245            2761     1.02096E-03     1.02229E-03
            2244            2761     1.02096E-03     1.02229E-03
            2236            2761     1.02096E-03     1.02229E-03
            2235            2761     1.02096E-03     1.02229E-03
            2237            2762     1.09788E-03     1.10700E-03
            2245            2762     1.09788E-03     1.10700E-03
            2236            2762     1.09788E-03     1.10700E-03
            2246            2762     1.09788E-03     1.10700E-03
            2238            2763     1.10064E-03     1.10735E-03
            2246            2763     1.10064E-03     1.10735E-03
            2247            2763     1.10064E-03     1.10735E-03
            2237            2763     1.10064E-03     1.10735E-03
            2248            2764     1.09578E-03     1.10184E-03
            2238            2764     1.09578E-03     1.10184E-03
            2239            2764     1.09578E-03     1.10184E-03
            2247            2764     1.09578E-03     1.10184E-03
            2249            2765     1.09578E-03     1.10184E-03
            2248            2765     1.09578E-03     1.10184E-03
            2239            2765     1.09578E-03     1.10184E-03
            2240            2765     1.09578E-03     1.10184E-03
            2249            2766     1.10064E-03     1.10735E-03
            2241            2766     1.10064E-03     1.10735E-03
            2240            2766     1.10064E-03     1.10735E-03
            2250            2766     1.10064E-03     1.10735E-03
            2242            2767     1.09788E-03     1.10700E-03
            2250            2767     1.09788E-03     1.10700E-03
            2251            2767     1.09788E-03     1.10700E-03
            2241            2767     1.09788E-03     1.10700E-03
            2243            2768     1.02096E-03     1.02229E-03
            2242            2768     1.02096E-03     1.02229E-03
            2252            2768     1.02096E-03     1.02229E-03
            2251            2768     1.02096E-03     1.02229E-03
            2254            2769     941.441E-06     947.650E-06
            2253            2769     941.441E-06     947.650E-06
            2245            2769     941.441E-06     947.650E-06
            2244            2769     941.441E-06     947.650E-06
            2246            2770     1.12540E-03     1.13327E-03
            2254            2770     1.12540E-03     1.13327E-03
            2245            2770     1.12540E-03     1.13327E-03
            2255            2770     1.12540E-03     1.13327E-03
            2255            2771     1.12526E-03     1.13545E-03
            2247            2771     1.12526E-03     1.13545E-03
            2256            2771     1.12526E-03     1.13545E-03
            2246            2771     1.12526E-03     1.13545E-03
            2247            2772     1.11206E-03     1.12042E-03
            2248            2772     1.11206E-03     1.12042E-03
            2257            2772     1.11206E-03     1.12042E-03
            2256            2772     1.11206E-03     1.12042E-03
            2257            2773     1.11206E-03     1.12042E-03
            2258            2773     1.11206E-03     1.12042E-03
            2249            2773     1.11206E-03     1.12042E-03
            2248            2773     1.11206E-03     1.12042E-03
            2258            2774     1.12526E-03     1.13545E-03
            2259            2774     1.12526E-03     1.13545E-03
            2250            2774     1.12526E-03     1.13545E-03
            2249            2774     1.12526E-03     1.13545E-03
            2251            2775     1.12540E-03     1.13327E-03
            2260            2775     1.12540E-03     1.13327E-03
            2259            2775     1.12540E-03     1.13327E-03
            2250            2775     1.12540E-03     1.13327E-03
            2251            2776     941.441E-06     947.650E-06
            2252            2776     941.441E-06     947.650E-06
            2260            2776     941.441E-06     947.650E-06
            2261            2776     941.441E-06     947.650E-06
            2254            2777     915.323E-06     918.678E-06
            2253            2777     915.323E-06     918.678E-06
            2263            2777     915.323E-06     918.678E-06
            2262            2777     915.323E-06     918.678E-06
            2264            2778     1.09073E-03     1.09394E-03
            2263            2778     1.09073E-03     1.09394E-03
            2254            2778     1.09073E-03     1.09394E-03
            2255            2778     1.09073E-03     1.09394E-03
            2256            2779     1.12225E-03     1.12803E-03
            2255            2779     1.12225E-03     1.12803E-03
            2265            2779     1.12225E-03     1.12803E-03
            2264            2779     1.12225E-03     1.12803E-03
            2265            2780     1.12473E-03     1.13128E-03
            2266            2780     1.12473E-03     1.13128E-03
            2256            2780     1.12473E-03     1.13128E-03
            2257            2780     1.12473E-03     1.13128E-03
            2267            2781     1.12473E-03     1.13128E-03
            2258            2781     1.12473E-03     1.13128E-03
            2257            2781     1.12473E-03     1.13128E-03
            2266            2781     1.12473E-03     1.13128E-03
            2267            2782     1.12225E-03     1.12803E-03
            2259            2782     1.12225E-03     1.12803E-03
            2268            2782     1.12225E-03     1.12803E-03
            2258            2782     1.12225E-03     1.12803E-03
            2268            2783     1.09073E-03     1.09394E-03
            2269            2783     1.09073E-03     1.09394E-03
            2260            2783     1.09073E-03     1.09394E-03
            2259            2783     1.09073E-03     1.09394E-03
            2261            2784     915.323E-06     918.678E-06
            2269            2784     915.323E-06     918.678E-06
            2260            2784     915.323E-06     918.678E-06
            2270            2784     915.323E-06     918.678E-06
            3851            4163     65.7395E-03     65.5344E-03
            3860            4163     65.7395E-03     65.5344E-03
            3852            4163     65.7395E-03     65.5344E-03
            3861            4163     65.7395E-03     65.5344E-03
            3852            4164     42.4378E-03     43.3633E-03
            3853            4164     42.4378E-03     43.3633E-03
            3862            4164     42.4378E-03     43.3633E-03
            3861            4164     42.4378E-03     43.3633E-03
            3862            4165     22.8506E-03     24.1988E-03
            3853            4165     22.8506E-03     24.1988E-03
            3854            4165     22.8506E-03     24.1988E-03
            3863            4165     22.8506E-03     24.1988E-03
            3854            4166     12.4266E-03     12.9487E-03
            3855            4166     12.4266E-03     12.9487E-03
            3864            4166     12.4266E-03     12.9487E-03
            3863            4166     12.4266E-03     12.9487E-03
            3864            4167     19.2763E-03     18.2347E-03
            3855            4167     19.2763E-03     18.2347E-03
            3856            4167     19.2763E-03     18.2347E-03
            3865            4167     19.2763E-03     18.2347E-03
            3856            4168     37.0256E-03     35.1815E-03
            3866            4168     37.0256E-03     35.1815E-03
            3857            4168     37.0256E-03     35.1815E-03
            3865            4168     37.0256E-03     35.1815E-03
            3867            4169     57.3388E-03     55.1656E-03
            3857            4169     57.3388E-03     55.1656E-03
            3866            4169     57.3388E-03     55.1656E-03
            3858            4169     57.3388E-03     55.1656E-03
            3858            4170     81.0354E-03     78.2455E-03
            3868            4170     81.0354E-03     78.2455E-03
            3867            4170     81.0354E-03     78.2455E-03
            3859            4170     81.0354E-03     78.2455E-03
            3860            4171     65.2388E-03     67.0344E-03
            3870            4171     65.2388E-03     67.0344E-03
            3869            4171     65.2388E-03     67.0344E-03
            3861            4171     65.2388E-03     67.0344E-03
            3871            4172     45.0626E-03     47.9767E-03
            3861            4172     45.0626E-03     47.9767E-03
            3870            4172     45.0626E-03     47.9767E-03
            3862            4172     45.0626E-03     47.9767E-03
            3871            4173     25.9307E-03     28.2957E-03
            3863            4173     25.9307E-03     28.2957E-03
            3862            4173     25.9307E-03     28.2957E-03
            3872            4173     25.9307E-03     28.2957E-03
            3872            4174     15.6948E-03     16.5749E-03
            3863            4174     15.6948E-03     16.5749E-03
            3873            4174     15.6948E-03     16.5749E-03
            3864            4174     15.6948E-03     16.5749E-03
            3873            4175     22.0194E-03     22.1266E-03
            3864            4175     22.0194E-03     22.1266E-03
            3865            4175     22.0194E-03     22.1266E-03
            3874            4175     22.0194E-03     22.1266E-03
            3865            4176     39.3776E-03     40.1747E-03
            3866            4176     39.3776E-03     40.1747E-03
            3875            4176     39.3776E-03     40.1747E-03
            3874            4176     39.3776E-03     40.1747E-03
            3866            4177     59.4505E-03     61.2071E-03
            3876            4177     59.4505E-03     61.2071E-03
            3867            4177     59.4505E-03     61.2071E-03
            3875            4177     59.4505E-03     61.2071E-03
            3868            4178     79.4332E-03     80.7140E-03
            3867            4178     79.4332E-03     80.7140E-03
            3876            4178     79.4332E-03     80.7140E-03
            3877            4178     79.4332E-03     80.7140E-03
            3870            4179     62.8033E-03     64.5749E-03
            3879            4179     62.8033E-03     64.5749E-03
            3869            4179     62.8033E-03     64.5749E-03
            3878            4179     62.8033E-03     64.5749E-03
            3879            4180     44.9615E-03     47.9000E-03
            3870            4180     44.9615E-03     47.9000E-03
            3871            4180     44.9615E-03     47.9000E-03
            3880            4180     44.9615E-03     47.9000E-03
            3880            4181     27.7360E-03     29.3963E-03
            3871            4181     27.7360E-03     29.3963E-03
            3872            4181     27.7360E-03     29.3963E-03
            3881            4181     27.7360E-03     29.3963E-03
            3882            4182     17.5075E-03     17.5212E-03
            3872            4182     17.5075E-03     17.5212E-03
            3881            4182     17.5075E-03     17.5212E-03
            3873            4182     17.5075E-03     17.5212E-03
            3883            4183     23.1829E-03     23.2904E-03
            3882            4183     23.1829E-03     23.2904E-03
            3873            4183     23.1829E-03     23.2904E-03
            3874            4183     23.1829E-03     23.2904E-03
            3875            4184     40.2505E-03     41.9707E-03
            3883            4184     40.2505E-03     41.9707E-03
            3874            4184     40.2505E-03     41.9707E-03
            3884            4184     40.2505E-03     41.9707E-03
            3875            4185     58.8559E-03     61.5531E-03
            3876            4185     58.8559E-03     61.5531E-03
            3884            4185     58.8559E-03     61.5531E-03
            3885            4185     58.8559E-03     61.5531E-03
            3877            4186     76.6246E-03     77.9668E-03
            3876            4186     76.6246E-03     77.9668E-03
            3885            4186     76.6246E-03     77.9668E-03
            3886            4186     76.6246E-03     77.9668E-03
            3888            4187     60.9999E-03     62.7973E-03
            3878            4187     60.9999E-03     62.7973E-03
            3887            4187     60.9999E-03     62.7973E-03
            3879            4187     60.9999E-03     62.7973E-03
            3888            4188     44.1056E-03     45.0637E-03
            3880            4188     44.1056E-03     45.0637E-03
            3879            4188     44.1056E-03     45.0637E-03
            3889            4188     44.1056E-03     45.0637E-03
            3890            4189     28.0378E-03     27.4048E-03
            3880            4189     28.0378E-03     27.4048E-03
            3881            4189     28.0378E-03     27.4048E-03
            3889            4189     28.0378E-03     27.4048E-03
            3890            4190     18.8651E-03     17.7522E-03
            3881            4190     18.8651E-03     17.7522E-03
            3891            4190     18.8651E-03     17.7522E-03
            3882            4190     18.8651E-03     17.7522E-03
            3891            4191     23.8766E-03     23.4751E-03
            3892            4191     23.8766E-03     23.4751E-03
            3883            4191     23.8766E-03     23.4751E-03
            3882            4191     23.8766E-03     23.4751E-03
            3892            4192     39.1507E-03     39.9081E-03
            3893            4192     39.1507E-03     39.9081E-03
            3883            4192     39.1507E-03     39.9081E-03
            3884            4192     39.1507E-03     39.9081E-03
            3893            4193     56.9765E-03     58.7897E-03
            3885            4193     56.9765E-03     58.7897E-03
            3884            4193     56.9765E-03     58.7897E-03
            3894            4193     56.9765E-03     58.7897E-03
            3895            4194     74.6700E-03     76.2824E-03
            3885            4194     74.6700E-03     76.2824E-03
            3886            4194     74.6700E-03     76.2824E-03
            3894            4194     74.6700E-03     76.2824E-03
            3888            4195     58.5389E-03     54.8529E-03
            3887            4195     58.5389E-03     54.8529E-03
            3896            4195     58.5389E-03     54.8529E-03
            3897            4195     58.5389E-03     54.8529E-03
            3897            4196     42.6236E-03     38.8807E-03
            3889            4196     42.6236E-03     38.8807E-03
            3898            4196     42.6236E-03     38.8807E-03
            3888            4196     42.6236E-03     38.8807E-03
            3889            4197     28.5263E-03     25.7229E-03
            3899            4197     28.5263E-03     25.7229E-03
            3890            4197     28.5263E-03     25.7229E-03
            3898            4197     28.5263E-03     25.7229E-03
            3900            4198     21.2016E-03     19.7328E-03
            3899            4198     21.2016E-03     19.7328E-03
            3891            4198     21.2016E-03     19.7328E-03
            3890            4198     21.2016E-03     19.7328E-03
            3891            4199     25.1825E-03     24.5864E-03
            3892            4199     25.1825E-03     24.5864E-03
            3901            4199     25.1825E-03     24.5864E-03
            3900            4199     25.1825E-03     24.5864E-03
            3893            4200     37.6430E-03     36.8928E-03
            3892            4200     37.6430E-03     36.8928E-03
            3901            4200     37.6430E-03     36.8928E-03
            3902            4200     37.6430E-03     36.8928E-03
            3902            4201     53.4461E-03     52.1996E-03
            3894            4201     53.4461E-03     52.1996E-03
            3893            4201     53.4461E-03     52.1996E-03
            3903            4201     53.4461E-03     52.1996E-03
            3895            4202     70.8193E-03     69.1252E-03
            3894            4202     70.8193E-03     69.1252E-03
            3904            4202     70.8193E-03     69.1252E-03
            3903            4202     70.8193E-03     69.1252E-03
            3905            4203     79.3218E-03     59.5338E-03
            3906            4203     79.3218E-03     59.5338E-03
            3915            4203     79.3218E-03     59.5338E-03
            3914            4203     79.3218E-03     59.5338E-03
            3915            4204     59.5919E-03     44.8395E-03
            3916            4204     59.5919E-03     44.8395E-03
            3907            4204     59.5919E-03     44.8395E-03
            3906            4204     59.5919E-03     44.8395E-03
            3907            4205     43.0552E-03     32.1855E-03
            3917            4205     43.0552E-03     32.1855E-03
            3916            4205     43.0552E-03     32.1855E-03
            3908            4205     43.0552E-03     32.1855E-03
            3909            4206     30.2209E-03     24.9407E-03
            3917            4206     30.2209E-03     24.9407E-03
            3918            4206     30.2209E-03     24.9407E-03
            3908            4206     30.2209E-03     24.9407E-03
            3918            4207     24.9853E-03     26.4211E-03
            3910            4207     24.9853E-03     26.4211E-03
            3919            4207     24.9853E-03     26.4211E-03
            3909            4207     24.9853E-03     26.4211E-03
            3919            4208     31.1939E-03     34.8732E-03
            3910            4208     31.1939E-03     34.8732E-03
            3920            4208     31.1939E-03     34.8732E-03
            3911            4208     31.1939E-03     34.8732E-03
            3921            4209     45.1575E-03     47.4547E-03
            3911            4209     45.1575E-03     47.4547E-03
            3920            4209     45.1575E-03     47.4547E-03
            3912            4209     45.1575E-03     47.4547E-03
            3913            4210     62.6097E-03     62.8910E-03
            3921            4210     62.6097E-03     62.8910E-03
            3912            4210     62.6097E-03     62.8910E-03
            3922            4210     62.6097E-03     62.8910E-03
            3915            4211     75.8066E-03     57.8207E-03
            3923            4211     75.8066E-03     57.8207E-03
            3924            4211     75.8066E-03     57.8207E-03
            3914            4211     75.8066E-03     57.8207E-03
            3916            4212     57.7384E-03     38.1685E-03
            3925            4212     57.7384E-03     38.1685E-03
            3915            4212     57.7384E-03     38.1685E-03
            3924            4212     57.7384E-03     38.1685E-03
            3916            4213     39.3242E-03     22.4886E-03
            3917            4213     39.3242E-03     22.4886E-03
            3925            4213     39.3242E-03     22.4886E-03
            3926            4213     39.3242E-03     22.4886E-03
            3926            4214     23.6323E-03     14.5726E-03
            3918            4214     23.6323E-03     14.5726E-03
            3917            4214     23.6323E-03     14.5726E-03
            3927            4214     23.6323E-03     14.5726E-03
            3919            4215     18.6433E-03     20.0932E-03
            3928            4215     18.6433E-03     20.0932E-03
            3918            4215     18.6433E-03     20.0932E-03
            3927            4215     18.6433E-03     20.0932E-03
            3929            4216     28.4380E-03     34.5448E-03
            3920            4216     28.4380E-03     34.5448E-03
            3928            4216     28.4380E-03     34.5448E-03
            3919            4216     28.4380E-03     34.5448E-03
            3930            4217     45.9420E-03     50.7845E-03
            3920            4217     45.9420E-03     50.7845E-03
            3929            4217     45.9420E-03     50.7845E-03
            3921            4217     45.9420E-03     50.7845E-03
            3930            4218     65.9483E-03     68.1620E-03
            3931            4218     65.9483E-03     68.1620E-03
            3922            4218     65.9483E-03     68.1620E-03
            3921            4218     65.9483E-03     68.1620E-03
            3923            4219     69.4830E-03     72.3956E-03
            3933            4219     69.4830E-03     72.3956E-03
            3924            4219     69.4830E-03     72.3956E-03
            3932            4219     69.4830E-03     72.3956E-03
            3925            4220     54.2796E-03     50.6677E-03
            3934            4220     54.2796E-03     50.6677E-03
            3933            4220     54.2796E-03     50.6677E-03
            3924            4220     54.2796E-03     50.6677E-03
            3926            4221     35.5303E-03     29.0983E-03
            3934            4221     35.5303E-03     29.0983E-03
            3935            4221     35.5303E-03     29.0983E-03
            3925            4221     35.5303E-03     29.0983E-03
            3926            4222     18.9243E-03     12.9285E-03
            3935            4222     18.9243E-03     12.9285E-03
            3936            4222     18.9243E-03     12.9285E-03
            3927            4222     18.9243E-03     12.9285E-03
            3927            4223     17.4186E-03     15.2388E-03
            3936            4223     17.4186E-03     15.2388E-03
            3937            4223     17.4186E-03     15.2388E-03
            3928            4223     17.4186E-03     15.2388E-03
            3929            4224     31.9143E-03     34.1320E-03
            3937            4224     31.9143E-03     34.1320E-03
            3928            4224     31.9143E-03     34.1320E-03
            3938            4224     31.9143E-03     34.1320E-03
            3938            4225     51.1888E-03     54.9017E-03
            3930            4225     51.1888E-03     54.9017E-03
            3929            4225     51.1888E-03     54.9017E-03
            3939            4225     51.1888E-03     54.9017E-03
            3931            4226     70.2497E-03     72.9091E-03
            3930            4226     70.2497E-03     72.9091E-03
            3939            4226     70.2497E-03     72.9091E-03
            3940            4226     70.2497E-03     72.9091E-03
            3932            4227     71.7048E-03     73.3424E-03
            3941            4227     71.7048E-03     73.3424E-03
            3933            4227     71.7048E-03     73.3424E-03
            3942            4227     71.7048E-03     73.3424E-03
            3933            4228     49.3277E-03     56.6153E-03
            3943            4228     49.3277E-03     56.6153E-03
            3942            4228     49.3277E-03     56.6153E-03
            3934            4228     49.3277E-03     56.6153E-03
            3935            4229     29.0620E-03     34.6433E-03
            3934            4229     29.0620E-03     34.6433E-03
            3943            4229     29.0620E-03     34.6433E-03
            3944            4229     29.0620E-03     34.6433E-03
            3945            4230     14.8185E-03     14.1460E-03
            3944            4230     14.8185E-03     14.1460E-03
            3935            4230     14.8185E-03     14.1460E-03
            3936            4230     14.8185E-03     14.1460E-03
            3946            4231     17.1408E-03     12.4014E-03
            3945            4231     17.1408E-03     12.4014E-03
            3936            4231     17.1408E-03     12.4014E-03
            3937            4231     17.1408E-03     12.4014E-03
            3947            4232     33.9810E-03     30.9435E-03
            3938            4232     33.9810E-03     30.9435E-03
            3937            4232     33.9810E-03     30.9435E-03
            3946            4232     33.9810E-03     30.9435E-03
            3938            4233     53.7824E-03     53.5217E-03
            3948            4233     53.7824E-03     53.5217E-03
            3947            4233     53.7824E-03     53.5217E-03
            3939            4233     53.7824E-03     53.5217E-03
            3939            4234     72.8548E-03     73.5969E-03
            3948            4234     72.8548E-03     73.5969E-03
            3940            4234     72.8548E-03     73.5969E-03
            3949            4234     72.8548E-03     73.5969E-03
            3950            4235     64.5060E-03     78.4611E-03
            3951            4235     64.5060E-03     78.4611E-03
            3941            4235     64.5060E-03     78.4611E-03
            3942            4235     64.5060E-03     78.4611E-03
            3951            4236     40.3841E-03     57.2263E-03
            3952            4236     40.3841E-03     57.2263E-03
            3942            4236     40.3841E-03     57.2263E-03
            3943            4236     40.3841E-03     57.2263E-03
            3944            4237     20.8641E-03     36.7128E-03
            3952            4237     20.8641E-03     36.7128E-03
            3943            4237     20.8641E-03     36.7128E-03
            3953            4237     20.8641E-03     36.7128E-03
            3954            4238     10.7356E-03     16.7751E-03
            3944            4238     10.7356E-03     16.7751E-03
            3953            4238     10.7356E-03     16.7751E-03
            3945            4238     10.7356E-03     16.7751E-03
            3945            4239     17.3170E-03     10.6703E-03
            3954            4239     17.3170E-03     10.6703E-03
            3955            4239     17.3170E-03     10.6703E-03
            3946            4239     17.3170E-03     10.6703E-03
            3946            4240     34.3262E-03     24.4536E-03
            3956            4240     34.3262E-03     24.4536E-03
            3955            4240     34.3262E-03     24.4536E-03
            3947            4240     34.3262E-03     24.4536E-03
            3957            4241     53.2002E-03     45.6255E-03
            3948            4241     53.2002E-03     45.6255E-03
            3947            4241     53.2002E-03     45.6255E-03
            3956            4241     53.2002E-03     45.6255E-03
            3949            4242     74.5727E-03     69.0056E-03
            3948            4242     74.5727E-03     69.0056E-03
            3958            4242     74.5727E-03     69.0056E-03
            3957            4242     74.5727E-03     69.0056E-03
            5325            5425     1.16806E-03     1.16223E-03
            5334            5425     1.16806E-03     1.16223E-03
            5326            5425     1.16806E-03     1.16223E-03
            5335            5425     1.16806E-03     1.16223E-03
            5326            5426     1.12828E-03     1.13967E-03
            5336            5426     1.12828E-03     1.13967E-03
            5327            5426     1.12828E-03     1.13967E-03
            5335            5426     1.12828E-03     1.13967E-03
            5328            5427     1.11482E-03     1.12656E-03
            5337            5427     1.11482E-03     1.12656E-03
            5336            5427     1.11482E-03     1.12656E-03
            5327            5427     1.11482E-03     1.12656E-03
            5337            5428     1.12249E-03     1.13380E-03
            5338            5428     1.12249E-03     1.13380E-03
            5328            5428     1.12249E-03     1.13380E-03
            5329            5428     1.12249E-03     1.13380E-03
            5339            5429     1.12249E-03     1.13380E-03
            5338            5429     1.12249E-03     1.13380E-03
            5329            5429     1.12249E-03     1.13380E-03
            5330            5429     1.12249E-03     1.13380E-03
            5331            5430     1.11482E-03     1.12656E-03
            5339            5430     1.11482E-03     1.12656E-03
            5340            5430     1.11482E-03     1.12656E-03
            5330            5430     1.11482E-03     1.12656E-03
            5340            5431     1.12828E-03     1.13967E-03
            5331            5431     1.12828E-03     1.13967E-03
            5341            5431     1.12828E-03     1.13967E-03
            5332            5431     1.12828E-03     1.13967E-03
            5333            5432     1.16806E-03     1.16223E-03
            5342            5432     1.16806E-03     1.16223E-03
            5332            5432     1.16806E-03     1.16223E-03
            5341            5432     1.16806E-03     1.16223E-03
            5334            5433     1.00679E-03     1.01351E-03
            5335            5433     1.00679E-03     1.01351E-03
            5343            5433     1.00679E-03     1.01351E-03
            5344            5433     1.00679E-03     1.01351E-03
            5335            5434     1.13211E-03     1.14625E-03
            5336            5434     1.13211E-03     1.14625E-03
            5345            5434     1.13211E-03     1.14625E-03
            5344            5434     1.13211E-03     1.14625E-03
            5345            5435     1.17283E-03     1.18935E-03
            5346            5435     1.17283E-03     1.18935E-03
            5337            5435     1.17283E-03     1.18935E-03
            5336            5435     1.17283E-03     1.18935E-03
            5338            5436     1.18565E-03     1.20023E-03
            5337            5436     1.18565E-03     1.20023E-03
            5346            5436     1.18565E-03     1.20023E-03
            5347            5436     1.18565E-03     1.20023E-03
            5339            5437     1.18565E-03     1.20023E-03
            5338            5437     1.18565E-03     1.20023E-03
            5347            5437     1.18565E-03     1.20023E-03
            5348            5437     1.18565E-03     1.20023E-03
            5349            5438     1.17283E-03     1.18935E-03
            5340            5438     1.17283E-03     1.18935E-03
            5339            5438     1.17283E-03     1.18935E-03
            5348            5438     1.17283E-03     1.18935E-03
            5341            5439     1.13211E-03     1.14625E-03
            5349            5439     1.13211E-03     1.14625E-03
            5340            5439     1.13211E-03     1.14625E-03
            5350            5439     1.13211E-03     1.14625E-03
            5351            5440     1.00679E-03     1.01351E-03
            5341            5440     1.00679E-03     1.01351E-03
            5342            5440     1.00679E-03     1.01351E-03
            5350            5440     1.00679E-03     1.01351E-03
            5352            5441     886.616E-06     893.267E-06
            5353            5441     886.616E-06     893.267E-06
            5343            5441     886.616E-06     893.267E-06
            5344            5441     886.616E-06     893.267E-06
            5353            5442     1.09611E-03     1.10194E-03
            5345            5442     1.09611E-03     1.10194E-03
            5354            5442     1.09611E-03     1.10194E-03
            5344            5442     1.09611E-03     1.10194E-03
            5355            5443     1.19450E-03     1.20316E-03
            5346            5443     1.19450E-03     1.20316E-03
            5354            5443     1.19450E-03     1.20316E-03
            5345            5443     1.19450E-03     1.20316E-03
            5356            5444     1.21331E-03     1.22297E-03
            5347            5444     1.21331E-03     1.22297E-03
            5346            5444     1.21331E-03     1.22297E-03
            5355            5444     1.21331E-03     1.22297E-03
            5347            5445     1.21331E-03     1.22297E-03
            5356            5445     1.21331E-03     1.22297E-03
            5348            5445     1.21331E-03     1.22297E-03
            5357            5445     1.21331E-03     1.22297E-03
            5348            5446     1.19450E-03     1.20316E-03
            5349            5446     1.19450E-03     1.20316E-03
            5357            5446     1.19450E-03     1.20316E-03
            5358            5446     1.19450E-03     1.20316E-03
            5358            5447     1.09611E-03     1.10194E-03
            5350            5447     1.09611E-03     1.10194E-03
            5349            5447     1.09611E-03     1.10194E-03
            5359            5447     1.09611E-03     1.10194E-03
            5351            5448     886.616E-06     893.267E-06
            5359            5448     886.616E-06     893.267E-06
            5350            5448     886.616E-06     893.267E-06
            5360            5448     886.616E-06     893.267E-06
            5352            5449     854.983E-06     865.438E-06
            5361            5449     854.983E-06     865.438E-06
            5353            5449     854.983E-06     865.438E-06
            5362            5449     854.983E-06     865.438E-06
            5353            5450     1.08547E-03     1.08724E-03
            5363            5450     1.08547E-03     1.08724E-03
            5362            5450     1.08547E-03     1.08724E-03
            5354            5450     1.08547E-03     1.08724E-03
            5355            5451     1.17290E-03     1.17328E-03
            5363            5451     1.17290E-03     1.17328E-03
            5364            5451     1.17290E-03     1.17328E-03
            5354            5451     1.17290E-03     1.17328E-03
            5365            5452     1.19894E-03     1.20084E-03
            5355            5452     1.19894E-03     1.20084E-03
            5356            5452     1.19894E-03     1.20084E-03
            5364            5452     1.19894E-03     1.20084E-03
            5365            5453     1.19894E-03     1.20084E-03
            5366            5453     1.19894E-03     1.20084E-03
            5357            5453     1.19894E-03     1.20084E-03
            5356            5453     1.19894E-03     1.20084E-03
            5358            5454     1.17290E-03     1.17328E-03
            5366            5454     1.17290E-03     1.17328E-03
            5357            5454     1.17290E-03     1.17328E-03
            5367            5454     1.17290E-03     1.17328E-03
            5368            5455     1.08547E-03     1.08724E-03
            5359            5455     1.08547E-03     1.08724E-03
            5358            5455     1.08547E-03     1.08724E-03
            5367            5455     1.08547E-03     1.08724E-03
            5368            5456     854.983E-06     865.438E-06
            5360            5456     854.983E-06     865.438E-06
            5359            5456     854.983E-06     865.438E-06
            5369            5456     854.983E-06     865.438E-06
            5361            5457     881.768E-06     889.235E-06
            5370            5457     881.768E-06     889.235E-06
            5362            5457     881.768E-06     889.235E-06
            5371            5457     881.768E-06     889.235E-06
            5362            5458     1.06298E-03     1.06248E-03
            5372            5458     1.06298E-03     1.06248E-03
            5363            5458     1.06298E-03     1.06248E-03
            5371            5458     1.06298E-03     1.06248E-03
            5373            5459     1.13198E-03     1.12980E-03
            5363            5459     1.13198E-03     1.12980E-03
            5372            5459     1.13198E-03     1.12980E-03
            5364            5459     1.13198E-03     1.12980E-03
            5373            5460     1.16564E-03     1.16370E-03
            5365            5460     1.16564E-03     1.16370E-03
            5364            5460     1.16564E-03     1.16370E-03
            5374            5460     1.16564E-03     1.16370E-03
            5366            5461     1.16564E-03     1.16370E-03
            5375            5461     1.16564E-03     1.16370E-03
            5374            5461     1.16564E-03     1.16370E-03
            5365            5461     1.16564E-03     1.16370E-03
            5367            5462     1.13198E-03     1.12980E-03
            5375            5462     1.13198E-03     1.12980E-03
            5366            5462     1.13198E-03     1.12980E-03
            5376            5462     1.13198E-03     1.12980E-03
            5377            5463     1.06298E-03     1.06248E-03
            5368            5463     1.06298E-03     1.06248E-03
            5376            5463     1.06298E-03     1.06248E-03
            5367            5463     1.06298E-03     1.06248E-03
            5378            5464     881.768E-06     889.235E-06
            5377            5464     881.768E-06     889.235E-06
            5369            5464     881.768E-06     889.235E-06
            5368            5464     881.768E-06     889.235E-06
            5388            5465     59.1401E-03     56.8758E-03
            5389            5465     59.1401E-03     56.8758E-03
            5379            5465     59.1401E-03     56.8758E-03
            5380            5465     59.1401E-03     56.8758E-03
            5389            5466     39.2887E-03     37.7417E-03
            5380            5466     39.2887E-03     37.7417E-03
            5390            5466     39.2887E-03     37.7417E-03
            5381            5466     39.2887E-03     37.7417E-03
            5381            5467     22.4826E-03     21.9207E-03
            5390            5467     22.4826E-03     21.9207E-03
            5382            5467     22.4826E-03     21.9207E-03
            5391            5467     22.4826E-03     21.9207E-03
            5392            5468     11.8179E-03     11.9761E-03
            5383            5468     11.8179E-03     11.9761E-03
            5382            5468     11.8179E-03     11.9761E-03
            5391            5468     11.8179E-03     11.9761E-03
            5383            5469     16.2637E-03     16.0082E-03
            5392            5469     16.2637E-03     16.0082E-03
            5393            5469     16.2637E-03     16.0082E-03
            5384            5469     16.2637E-03     16.0082E-03
            5385            5470     31.8321E-03     30.4739E-03
            5393            5470     31.8321E-03     30.4739E-03
            5394            5470     31.8321E-03     30.4739E-03
            5384            5470     31.8321E-03     30.4739E-03
            5386            5471     49.2608E-03     46.8972E-03
            5394            5471     49.2608E-03     46.8972E-03
            5385            5471     49.2608E-03     46.8972E-03
            5395            5471     49.2608E-03     46.8972E-03
            5395            5472     69.7209E-03     66.4559E-03
            5396            5472     69.7209E-03     66.4559E-03
            5386            5472     69.7209E-03     66.4559E-03
            5387            5472     69.7209E-03     66.4559E-03
            5397            5473     63.4682E-03     61.5975E-03
            5398            5473     63.4682E-03     61.5975E-03
            5388            5473     63.4682E-03     61.5975E-03
            5389            5473     63.4682E-03     61.5975E-03
            5399            5474     42.2682E-03     41.2352E-03
            5390            5474     42.2682E-03     41.2352E-03
            5398            5474     42.2682E-03     41.2352E-03
            5389            5474     42.2682E-03     41.2352E-03
            5391            5475     24.7091E-03     24.7882E-03
            5390            5475     24.7091E-03     24.7882E-03
            5400            5475     24.7091E-03     24.7882E-03
            5399            5475     24.7091E-03     24.7882E-03
            5400            5476     14.5806E-03     15.8738E-03
            5391            5476     14.5806E-03     15.8738E-03
            5392            5476     14.5806E-03     15.8738E-03
            5401            5476     14.5806E-03     15.8738E-03
            5401            5477     18.6239E-03     19.2956E-03
            5402            5477     18.6239E-03     19.2956E-03
            5393            5477     18.6239E-03     19.2956E-03
            5392            5477     18.6239E-03     19.2956E-03
            5393            5478     33.4398E-03     32.3602E-03
            5403            5478     33.4398E-03     32.3602E-03
            5394            5478     33.4398E-03     32.3602E-03
            5402            5478     33.4398E-03     32.3602E-03
            5394            5479     52.0233E-03     49.9999E-03
            5404            5479     52.0233E-03     49.9999E-03
            5395            5479     52.0233E-03     49.9999E-03
            5403            5479     52.0233E-03     49.9999E-03
            5396            5480     73.9901E-03     71.2361E-03
            5404            5480     73.9901E-03     71.2361E-03
            5395            5480     73.9901E-03     71.2361E-03
            5405            5480     73.9901E-03     71.2361E-03
            5406            5481     61.7187E-03     62.2839E-03
            5407            5481     61.7187E-03     62.2839E-03
            5398            5481     61.7187E-03     62.2839E-03
            5397            5481     61.7187E-03     62.2839E-03
            5398            5482     43.7831E-03     45.1307E-03
            5399            5482     43.7831E-03     45.1307E-03
            5407            5482     43.7831E-03     45.1307E-03
            5408            5482     43.7831E-03     45.1307E-03
            5408            5483     27.0909E-03     28.9283E-03
            5399            5483     27.0909E-03     28.9283E-03
            5409            5483     27.0909E-03     28.9283E-03
            5400            5483     27.0909E-03     28.9283E-03
            5401            5484     17.8925E-03     20.2644E-03
            5409            5484     17.8925E-03     20.2644E-03
            5410            5484     17.8925E-03     20.2644E-03
            5400            5484     17.8925E-03     20.2644E-03
            5410            5485     21.7623E-03     23.6536E-03
            5411            5485     21.7623E-03     23.6536E-03
            5402            5485     21.7623E-03     23.6536E-03
            5401            5485     21.7623E-03     23.6536E-03
            5402            5486     35.6999E-03     36.7450E-03
            5412            5486     35.6999E-03     36.7450E-03
            5411            5486     35.6999E-03     36.7450E-03
            5403            5486     35.6999E-03     36.7450E-03
            5403            5487     53.6037E-03     54.5248E-03
            5404            5487     53.6037E-03     54.5248E-03
            5413            5487     53.6037E-03     54.5248E-03
            5412            5487     53.6037E-03     54.5248E-03
            5414            5488     71.8765E-03     72.2478E-03
            5405            5488     71.8765E-03     72.2478E-03
            5404            5488     71.8765E-03     72.2478E-03
            5413            5488     71.8765E-03     72.2478E-03
            5406            5489     59.0777E-03     59.1000E-03
            5407            5489     59.0777E-03     59.1000E-03
            5415            5489     59.0777E-03     59.1000E-03
            5416            5489     59.0777E-03     59.1000E-03
            5408            5490     42.7565E-03     43.8697E-03
            5417            5490     42.7565E-03     43.8697E-03
            5416            5490     42.7565E-03     43.8697E-03
            5407            5490     42.7565E-03     43.8697E-03
            5408            5491     27.9312E-03     29.8313E-03
            5417            5491     27.9312E-03     29.8313E-03
            5409            5491     27.9312E-03     29.8313E-03
            5418            5491     27.9312E-03     29.8313E-03
            5409            5492     19.3854E-03     21.5774E-03
            5410            5492     19.3854E-03     21.5774E-03
            5418            5492     19.3854E-03     21.5774E-03
            5419            5492     19.3854E-03     21.5774E-03
            5419            5493     23.1351E-03     25.0126E-03
            5420            5493     23.1351E-03     25.0126E-03
            5410            5493     23.1351E-03     25.0126E-03
            5411            5493     23.1351E-03     25.0126E-03
            5412            5494     36.4751E-03     37.8859E-03
            5421            5494     36.4751E-03     37.8859E-03
            5411            5494     36.4751E-03     37.8859E-03
            5420            5494     36.4751E-03     37.8859E-03
            5412            5495     52.5507E-03     53.3640E-03
            5422            5495     52.5507E-03     53.3640E-03
            5421            5495     52.5507E-03     53.3640E-03
            5413            5495     52.5507E-03     53.3640E-03
            5422            5496     69.0926E-03     68.8002E-03
            5413            5496     69.0926E-03     68.8002E-03
            5423            5496     69.0926E-03     68.8002E-03
            5414            5496     69.0926E-03     68.8002E-03
            5415            5497     57.1634E-03     56.8884E-03
            5416            5497     57.1634E-03     56.8884E-03
            5425            5497     57.1634E-03     56.8884E-03
            5424            5497     57.1634E-03     56.8884E-03
            5417            5498     41.2599E-03     41.8168E-03
            5425            5498     41.2599E-03     41.8168E-03
            5416            5498     41.2599E-03     41.8168E-03
            5426            5498     41.2599E-03     41.8168E-03
            5426            5499     27.3423E-03     28.5026E-03
            5417            5499     27.3423E-03     28.5026E-03
            5418            5499     27.3423E-03     28.5026E-03
            5427            5499     27.3423E-03     28.5026E-03
            5419            5500     19.7894E-03     21.1976E-03
            5427            5500     19.7894E-03     21.1976E-03
            5418            5500     19.7894E-03     21.1976E-03
            5428            5500     19.7894E-03     21.1976E-03
            5429            5501     23.5344E-03     24.7438E-03
            5428            5501     23.5344E-03     24.7438E-03
            5419            5501     23.5344E-03     24.7438E-03
            5420            5501     23.5344E-03     24.7438E-03
            5420            5502     35.8498E-03     36.6261E-03
            5429            5502     35.8498E-03     36.6261E-03
            5430            5502     35.8498E-03     36.6261E-03
            5421            5502     35.8498E-03     36.6261E-03
            5421            5503     51.0050E-03     51.1987E-03
            5422            5503     51.0050E-03     51.1987E-03
            5431            5503     51.0050E-03     51.1987E-03
            5430            5503     51.0050E-03     51.1987E-03
            5432            5504     67.1063E-03     66.5133E-03
            5431            5504     67.1063E-03     66.5133E-03
            5422            5504     67.1063E-03     66.5133E-03
            5423            5504     67.1063E-03     66.5133E-03
            5434            5505     55.0760E-03     54.7557E-03
            5433            5505     55.0760E-03     54.7557E-03
            5425            5505     55.0760E-03     54.7557E-03
            5424            5505     55.0760E-03     54.7557E-03
            5425            5506     39.8633E-03     40.1997E-03
            5434            5506     39.8633E-03     40.1997E-03
            5435            5506     39.8633E-03     40.1997E-03
            5426            5506     39.8633E-03     40.1997E-03
            5435            5507     26.5631E-03     27.1651E-03
            5436            5507     26.5631E-03     27.1651E-03
            5426            5507     26.5631E-03     27.1651E-03
            5427            5507     26.5631E-03     27.1651E-03
            5436            5508     19.5539E-03     20.0477E-03
            5428            5508     19.5539E-03     20.0477E-03
            5427            5508     19.5539E-03     20.0477E-03
            5437            5508     19.5539E-03     20.0477E-03
            5438            5509     23.2346E-03     23.5817E-03
            5437            5509     23.2346E-03     23.5817E-03
            5428            5509     23.2346E-03     23.5817E-03
            5429            5509     23.2346E-03     23.5817E-03
            5438            5510     34.9833E-03     35.2467E-03
            5430            5510     34.9833E-03     35.2467E-03
            5429            5510     34.9833E-03     35.2467E-03
            5439            5510     34.9833E-03     35.2467E-03
            5440            5511     49.5416E-03     49.5181E-03
            5431            5511     49.5416E-03     49.5181E-03
            5430            5511     49.5416E-03     49.5181E-03
            5439            5511     49.5416E-03     49.5181E-03
            5440            5512     64.9395E-03     64.2869E-03
            5431            5512     64.9395E-03     64.2869E-03
            5432            5512     64.9395E-03     64.2869E-03
            5441            5512     64.9395E-03     64.2869E-03
            5443            5513     53.0070E-03     52.7673E-03
            5434            5513     53.0070E-03     52.7673E-03
            5433            5513     53.0070E-03     52.7673E-03
            5442            5513     53.0070E-03     52.7673E-03
            5444            5514     38.3976E-03     38.7300E-03
            5434            5514     38.3976E-03     38.7300E-03
            5435            5514     38.3976E-03     38.7300E-03
            5443            5514     38.3976E-03     38.7300E-03
            5435            5515     25.8359E-03     26.0525E-03
            5436            5515     25.8359E-03     26.0525E-03
            5444            5515     25.8359E-03     26.0525E-03
            5445            5515     25.8359E-03     26.0525E-03
            5436            5516     19.2009E-03     18.8977E-03
            5446            5516     19.2009E-03     18.8977E-03
            5445            5516     19.2009E-03     18.8977E-03
            5437            5516     19.2009E-03     18.8977E-03
            5438            5517     22.7910E-03     22.4446E-03
            5447            5517     22.7910E-03     22.4446E-03
            5437            5517     22.7910E-03     22.4446E-03
            5446            5517     22.7910E-03     22.4446E-03
            5439            5518     34.1056E-03     34.1199E-03
            5447            5518     34.1056E-03     34.1199E-03
            5448            5518     34.1056E-03     34.1199E-03
            5438            5518     34.1056E-03     34.1199E-03
            5440            5519     47.9818E-03     47.9590E-03
            5448            5519     47.9818E-03     47.9590E-03
            5439            5519     47.9818E-03     47.9590E-03
            5449            5519     47.9818E-03     47.9590E-03
            5440            5520     62.7618E-03     62.1972E-03
            5449            5520     62.7618E-03     62.1972E-03
            5441            5520     62.7618E-03     62.1972E-03
            5450            5520     62.7618E-03     62.1972E-03
            5443            5521     50.9203E-03     50.9325E-03
            5451            5521     50.9203E-03     50.9325E-03
            5452            5521     50.9203E-03     50.9325E-03
            5442            5521     50.9203E-03     50.9325E-03
            5443            5522     37.0775E-03     37.5634E-03
            5444            5522     37.0775E-03     37.5634E-03
            5453            5522     37.0775E-03     37.5634E-03
            5452            5522     37.0775E-03     37.5634E-03
            5444            5523     25.1489E-03     25.0918E-03
            5454            5523     25.1489E-03     25.0918E-03
            5453            5523     25.1489E-03     25.0918E-03
            5445            5523     25.1489E-03     25.0918E-03
            5454            5524     18.8799E-03     17.7587E-03
            5446            5524     18.8799E-03     17.7587E-03
            5445            5524     18.8799E-03     17.7587E-03
            5455            5524     18.8799E-03     17.7587E-03
            5455            5525     22.3599E-03     21.3624E-03
            5456            5525     22.3599E-03     21.3624E-03
            5447            5525     22.3599E-03     21.3624E-03
            5446            5525     22.3599E-03     21.3624E-03
            5447            5526     33.2003E-03     33.1600E-03
            5456            5526     33.2003E-03     33.1600E-03
            5457            5526     33.2003E-03     33.1600E-03
            5448            5526     33.2003E-03     33.1600E-03
            5449            5527     46.4710E-03     46.6913E-03
            5457            5527     46.4710E-03     46.6913E-03
            5458            5527     46.4710E-03     46.6913E-03
            5448            5527     46.4710E-03     46.6913E-03
            5458            5528     60.5486E-03     60.2261E-03
            5449            5528     60.5486E-03     60.2261E-03
            5450            5528     60.5486E-03     60.2261E-03
            5459            5528     60.5486E-03     60.2261E-03
            5460            5529     48.6962E-03     49.1446E-03
            5452            5529     48.6962E-03     49.1446E-03
            5461            5529     48.6962E-03     49.1446E-03
            5451            5529     48.6962E-03     49.1446E-03
            5461            5530     35.9077E-03     36.7102E-03
            5453            5530     35.9077E-03     36.7102E-03
            5462            5530     35.9077E-03     36.7102E-03
            5452            5530     35.9077E-03     36.7102E-03
            5462            5531     24.7470E-03     24.1507E-03
            5453            5531     24.7470E-03     24.1507E-03
            5463            5531     24.7470E-03     24.1507E-03
            5454            5531     24.7470E-03     24.1507E-03
            5463            5532     18.6229E-03     16.6425E-03
            5464            5532     18.6229E-03     16.6425E-03
            5455            5532     18.6229E-03     16.6425E-03
            5454            5532     18.6229E-03     16.6425E-03
            5456            5533     21.8515E-03     20.2048E-03
            5455            5533     21.8515E-03     20.2048E-03
            5464            5533     21.8515E-03     20.2048E-03
            5465            5533     21.8515E-03     20.2048E-03
            5466            5534     32.3587E-03     32.1422E-03
            5457            5534     32.3587E-03     32.1422E-03
            5456            5534     32.3587E-03     32.1422E-03
            5465            5534     32.3587E-03     32.1422E-03
            5466            5535     45.0354E-03     45.7162E-03
            5458            5535     45.0354E-03     45.7162E-03
            5457            5535     45.0354E-03     45.7162E-03
            5467            5535     45.0354E-03     45.7162E-03
            5459            5536     58.1180E-03     58.3078E-03
            5467            5536     58.1180E-03     58.3078E-03
            5468            5536     58.1180E-03     58.3078E-03
            5458            5536     58.1180E-03     58.3078E-03
            5460            5537     46.4140E-03     47.3603E-03
            5469            5537     46.4140E-03     47.3603E-03
            5470            5537     46.4140E-03     47.3603E-03
            5461            5537     46.4140E-03     47.3603E-03
            5470            5538     34.9038E-03     34.8350E-03
            5462            5538     34.9038E-03     34.8350E-03
            5471            5538     34.9038E-03     34.8350E-03
            5461            5538     34.9038E-03     34.8350E-03
            5463            5539     24.4805E-03     22.7616E-03
            5472            5539     24.4805E-03     22.7616E-03
            5471            5539     24.4805E-03     22.7616E-03
            5462            5539     24.4805E-03     22.7616E-03
            5464            5540     18.8121E-03     16.3070E-03
            5472            5540     18.8121E-03     16.3070E-03
            5463            5540     18.8121E-03     16.3070E-03
            5473            5540     18.8121E-03     16.3070E-03
            5465            5541     21.6773E-03     19.5779E-03
            5474            5541     21.6773E-03     19.5779E-03
            5473            5541     21.6773E-03     19.5779E-03
            5464            5541     21.6773E-03     19.5779E-03
            5474            5542     31.2916E-03     30.2824E-03
            5475            5542     31.2916E-03     30.2824E-03
            5465            5542     31.2916E-03     30.2824E-03
            5466            5542     31.2916E-03     30.2824E-03
            5467            5543     43.4035E-03     43.6657E-03
            5475            5543     43.4035E-03     43.6657E-03
            5476            5543     43.4035E-03     43.6657E-03
            5466            5543     43.4035E-03     43.6657E-03
            5477            5544     55.7182E-03     56.4486E-03
            5476            5544     55.7182E-03     56.4486E-03
            5467            5544     55.7182E-03     56.4486E-03
            5468            5544     55.7182E-03     56.4486E-03
            5478            5545     43.7071E-03     40.8145E-03
            5470            5545     43.7071E-03     40.8145E-03
            5469            5545     43.7071E-03     40.8145E-03
            5479            5545     43.7071E-03     40.8145E-03
            5480            5546     33.6337E-03     30.4274E-03
            5470            5546     33.6337E-03     30.4274E-03
            5471            5546     33.6337E-03     30.4274E-03
            5479            5546     33.6337E-03     30.4274E-03
            5471            5547     24.7303E-03     22.0310E-03
            5481            5547     24.7303E-03     22.0310E-03
            5472            5547     24.7303E-03     22.0310E-03
            5480            5547     24.7303E-03     22.0310E-03
            5472            5548     20.2211E-03     18.1134E-03
            5481            5548     20.2211E-03     18.1134E-03
            5473            5548     20.2211E-03     18.1134E-03
            5482            5548     20.2211E-03     18.1134E-03
            5482            5549     22.5364E-03     20.6662E-03
            5483            5549     22.5364E-03     20.6662E-03
            5474            5549     22.5364E-03     20.6662E-03
            5473            5549     22.5364E-03     20.6662E-03
            5474            5550     30.4012E-03     28.2793E-03
            5484            5550     30.4012E-03     28.2793E-03
            5475            5550     30.4012E-03     28.2793E-03
            5483            5550     30.4012E-03     28.2793E-03
            5475            5551     40.9146E-03     38.4956E-03
            5476            5551     40.9146E-03     38.4956E-03
            5484            5551     40.9146E-03     38.4956E-03
            5485            5551     40.9146E-03     38.4956E-03
            5485            5552     52.2683E-03     50.0224E-03
            5477            5552     52.2683E-03     50.0224E-03
            5476            5552     52.2683E-03     50.0224E-03
            5486            5552     52.2683E-03     50.0224E-03
            5488            5553     46.9159E-03     41.9263E-03
            5479            5553     46.9159E-03     41.9263E-03
            5487            5553     46.9159E-03     41.9263E-03
            5478            5553     46.9159E-03     41.9263E-03
            5488            5554     33.2198E-03     29.6926E-03
            5489            5554     33.2198E-03     29.6926E-03
            5480            5554     33.2198E-03     29.6926E-03
            5479            5554     33.2198E-03     29.6926E-03
            5489            5555     23.2174E-03     21.4799E-03
            5480            5555     23.2174E-03     21.4799E-03
            5490            5555     23.2174E-03     21.4799E-03
            5481            5555     23.2174E-03     21.4799E-03
            5491            5556     17.8592E-03     17.3040E-03
            5481            5556     17.8592E-03     17.3040E-03
            5490            5556     17.8592E-03     17.3040E-03
            5482            5556     17.8592E-03     17.3040E-03
            5491            5557     19.9794E-03     19.2311E-03
            5492            5557     19.9794E-03     19.2311E-03
            5482            5557     19.9794E-03     19.2311E-03
            5483            5557     19.9794E-03     19.2311E-03
            5483            5558     28.3883E-03     26.3053E-03
            5484            5558     28.3883E-03     26.3053E-03
            5492            5558     28.3883E-03     26.3053E-03
            5493            5558     28.3883E-03     26.3053E-03
            5484            5559     39.6838E-03     35.9866E-03
            5485            5559     39.6838E-03     35.9866E-03
            5494            5559     39.6838E-03     35.9866E-03
            5493            5559     39.6838E-03     35.9866E-03
            5485            5560     54.5175E-03     49.5143E-03
            5495            5560     54.5175E-03     49.5143E-03
            5494            5560     54.5175E-03     49.5143E-03
            5486            5560     54.5175E-03     49.5143E-03
            5487            5561     51.2029E-03     50.0079E-03
            5488            5561     51.2029E-03     50.0079E-03
            5496            5561     51.2029E-03     50.0079E-03
            5497            5561     51.2029E-03     50.0079E-03
            5488            5562     35.0540E-03     34.6490E-03
            5497            5562     35.0540E-03     34.6490E-03
            5498            5562     35.0540E-03     34.6490E-03
            5489            5562     35.0540E-03     34.6490E-03
            5498            5563     22.7365E-03     23.1199E-03
            5489            5563     22.7365E-03     23.1199E-03
            5499            5563     22.7365E-03     23.1199E-03
            5490            5563     22.7365E-03     23.1199E-03
            5490            5564     16.3223E-03     17.4209E-03
            5499            5564     16.3223E-03     17.4209E-03
            5500            5564     16.3223E-03     17.4209E-03
            5491            5564     16.3223E-03     17.4209E-03
            5492            5565     18.5339E-03     19.2312E-03
            5501            5565     18.5339E-03     19.2312E-03
            5491            5565     18.5339E-03     19.2312E-03
            5500            5565     18.5339E-03     19.2312E-03
            5493            5566     27.9126E-03     27.4539E-03
            5501            5566     27.9126E-03     27.4539E-03
            5492            5566     27.9126E-03     27.4539E-03
            5502            5566     27.9126E-03     27.4539E-03
            5494            5567     41.3746E-03     40.1438E-03
            5493            5567     41.3746E-03     40.1438E-03
            5503            5567     41.3746E-03     40.1438E-03
            5502            5567     41.3746E-03     40.1438E-03
            5504            5568     58.2573E-03     56.3005E-03
            5495            5568     58.2573E-03     56.3005E-03
            5503            5568     58.2573E-03     56.3005E-03
            5494            5568     58.2573E-03     56.3005E-03
            5506            5569     48.8978E-03     49.2045E-03
            5496            5569     48.8978E-03     49.2045E-03
            5497            5569     48.8978E-03     49.2045E-03
            5505            5569     48.8978E-03     49.2045E-03
            5497            5570     36.1932E-03     37.2015E-03
            5506            5570     36.1932E-03     37.2015E-03
            5498            5570     36.1932E-03     37.2015E-03
            5507            5570     36.1932E-03     37.2015E-03
            5508            5571     24.9704E-03     26.4271E-03
            5498            5571     24.9704E-03     26.4271E-03
            5507            5571     24.9704E-03     26.4271E-03
            5499            5571     24.9704E-03     26.4271E-03
            5499            5572     19.2916E-03     21.0683E-03
            5509            5572     19.2916E-03     21.0683E-03
            5500            5572     19.2916E-03     21.0683E-03
            5508            5572     19.2916E-03     21.0683E-03
            5500            5573     21.3533E-03     22.8654E-03
            5510            5573     21.3533E-03     22.8654E-03
            5501            5573     21.3533E-03     22.8654E-03
            5509            5573     21.3533E-03     22.8654E-03
            5502            5574     29.9321E-03     30.9167E-03
            5501            5574     29.9321E-03     30.9167E-03
            5510            5574     29.9321E-03     30.9167E-03
            5511            5574     29.9321E-03     30.9167E-03
            5503            5575     42.3829E-03     43.1156E-03
            5502            5575     42.3829E-03     43.1156E-03
            5512            5575     42.3829E-03     43.1156E-03
            5511            5575     42.3829E-03     43.1156E-03
            5504            5576     55.5696E-03     55.7671E-03
            5503            5576     55.5696E-03     55.7671E-03
            5513            5576     55.5696E-03     55.7671E-03
            5512            5576     55.5696E-03     55.7671E-03
            5506            5577     45.9302E-03     45.8518E-03
            5515            5577     45.9302E-03     45.8518E-03
            5505            5577     45.9302E-03     45.8518E-03
            5514            5577     45.9302E-03     45.8518E-03
            5506            5578     34.9705E-03     35.6715E-03
            5515            5578     34.9705E-03     35.6715E-03
            5516            5578     34.9705E-03     35.6715E-03
            5507            5578     34.9705E-03     35.6715E-03
            5516            5579     25.7126E-03     27.0711E-03
            5507            5579     25.7126E-03     27.0711E-03
            5517            5579     25.7126E-03     27.0711E-03
            5508            5579     25.7126E-03     27.0711E-03
            5509            5580     20.6934E-03     22.3078E-03
            5517            5580     20.6934E-03     22.3078E-03
            5508            5580     20.6934E-03     22.3078E-03
            5518            5580     20.6934E-03     22.3078E-03
            5510            5581     22.6374E-03     24.1010E-03
            5509            5581     22.6374E-03     24.1010E-03
            5519            5581     22.6374E-03     24.1010E-03
            5518            5581     22.6374E-03     24.1010E-03
            5511            5582     30.5422E-03     31.6461E-03
            5519            5582     30.5422E-03     31.6461E-03
            5510            5582     30.5422E-03     31.6461E-03
            5520            5582     30.5422E-03     31.6461E-03
            5511            5583     41.0605E-03     41.5772E-03
            5521            5583     41.0605E-03     41.5772E-03
            5512            5583     41.0605E-03     41.5772E-03
            5520            5583     41.0605E-03     41.5772E-03
            5512            5584     52.4735E-03     52.1601E-03
            5522            5584     52.4735E-03     52.1601E-03
            5521            5584     52.4735E-03     52.1601E-03
            5513            5584     52.4735E-03     52.1601E-03
            5524            5585     43.7217E-03     43.4406E-03
            5523            5585     43.7217E-03     43.4406E-03
            5515            5585     43.7217E-03     43.4406E-03
            5514            5585     43.7217E-03     43.4406E-03
            5525            5586     33.3986E-03     33.6984E-03
            5515            5586     33.3986E-03     33.6984E-03
            5516            5586     33.3986E-03     33.6984E-03
            5524            5586     33.3986E-03     33.6984E-03
            5516            5587     25.1640E-03     25.9617E-03
            5526            5587     25.1640E-03     25.9617E-03
            5525            5587     25.1640E-03     25.9617E-03
            5517            5587     25.1640E-03     25.9617E-03
            5517            5588     21.1118E-03     22.1797E-03
            5518            5588     21.1118E-03     22.1797E-03
            5527            5588     21.1118E-03     22.1797E-03
            5526            5588     21.1118E-03     22.1797E-03
            5519            5589     23.0160E-03     23.9778E-03
            5528            5589     23.0160E-03     23.9778E-03
            5527            5589     23.0160E-03     23.9778E-03
            5518            5589     23.0160E-03     23.9778E-03
            5529            5590     29.8892E-03     30.4495E-03
            5520            5590     29.8892E-03     30.4495E-03
            5528            5590     29.8892E-03     30.4495E-03
            5519            5590     29.8892E-03     30.4495E-03
            5521            5591     39.3858E-03     39.4291E-03
            5530            5591     39.3858E-03     39.4291E-03
            5520            5591     39.3858E-03     39.4291E-03
            5529            5591     39.3858E-03     39.4291E-03
            5530            5592     50.1517E-03     49.6471E-03
            5522            5592     50.1517E-03     49.6471E-03
            5531            5592     50.1517E-03     49.6471E-03
            5521            5592     50.1517E-03     49.6471E-03
            5533            5593     41.4267E-03     41.0984E-03
            5523            5593     41.4267E-03     41.0984E-03
            5524            5593     41.4267E-03     41.0984E-03
            5532            5593     41.4267E-03     41.0984E-03
            5533            5594     31.9174E-03     32.0431E-03
            5534            5594     31.9174E-03     32.0431E-03
            5525            5594     31.9174E-03     32.0431E-03
            5524            5594     31.9174E-03     32.0431E-03
            5534            5595     24.4500E-03     24.8622E-03
            5535            5595     24.4500E-03     24.8622E-03
            5526            5595     24.4500E-03     24.8622E-03
            5525            5595     24.4500E-03     24.8622E-03
            5526            5596     20.9586E-03     21.4444E-03
            5535            5596     20.9586E-03     21.4444E-03
            5536            5596     20.9586E-03     21.4444E-03
            5527            5596     20.9586E-03     21.4444E-03
            5528            5597     22.7846E-03     23.1575E-03
            5536            5597     22.7846E-03     23.1575E-03
            5537            5597     22.7846E-03     23.1575E-03
            5527            5597     22.7846E-03     23.1575E-03
            5529            5598     29.0408E-03     29.1962E-03
            5528            5598     29.0408E-03     29.1962E-03
            5538            5598     29.0408E-03     29.1962E-03
            5537            5598     29.0408E-03     29.1962E-03
            5529            5599     37.7901E-03     37.6467E-03
            5530            5599     37.7901E-03     37.6467E-03
            5538            5599     37.7901E-03     37.6467E-03
            5539            5599     37.7901E-03     37.6467E-03
            5531            5600     47.7546E-03     47.1843E-03
            5540            5600     47.7546E-03     47.1843E-03
            5530            5600     47.7546E-03     47.1843E-03
            5539            5600     47.7546E-03     47.1843E-03
            5542            5601     39.1581E-03     38.8633E-03
            5541            5601     39.1581E-03     38.8633E-03
            5533            5601     39.1581E-03     38.8633E-03
            5532            5601     39.1581E-03     38.8633E-03
            5534            5602     30.3766E-03     30.4386E-03
            5533            5602     30.3766E-03     30.4386E-03
            5542            5602     30.3766E-03     30.4386E-03
            5543            5602     30.3766E-03     30.4386E-03
            5544            5603     23.7302E-03     23.8825E-03
            5535            5603     23.7302E-03     23.8825E-03
            5543            5603     23.7302E-03     23.8825E-03
            5534            5603     23.7302E-03     23.8825E-03
            5536            5604     20.6982E-03     20.7157E-03
            5545            5604     20.6982E-03     20.7157E-03
            5535            5604     20.6982E-03     20.7157E-03
            5544            5604     20.6982E-03     20.7157E-03
            5546            5605     22.4422E-03     22.3728E-03
            5536            5605     22.4422E-03     22.3728E-03
            5545            5605     22.4422E-03     22.3728E-03
            5537            5605     22.4422E-03     22.3728E-03
            5547            5606     28.1720E-03     28.0888E-03
            5538            5606     28.1720E-03     28.0888E-03
            5546            5606     28.1720E-03     28.0888E-03
            5537            5606     28.1720E-03     28.0888E-03
            5547            5607     36.1269E-03     35.9010E-03
            5548            5607     36.1269E-03     35.9010E-03
            5539            5607     36.1269E-03     35.9010E-03
            5538            5607     36.1269E-03     35.9010E-03
            5539            5608     45.3590E-03     44.8226E-03
            5540            5608     45.3590E-03     44.8226E-03
            5548            5608     45.3590E-03     44.8226E-03
            5549            5608     45.3590E-03     44.8226E-03
            5542            5609     36.9556E-03     36.7634E-03
            5551            5609     36.9556E-03     36.7634E-03
            5550            5609     36.9556E-03     36.7634E-03
            5541            5609     36.9556E-03     36.7634E-03
            5552            5610     28.9388E-03     29.0651E-03
            5542            5610     28.9388E-03     29.0651E-03
            5543            5610     28.9388E-03     29.0651E-03
            5551            5610     28.9388E-03     29.0651E-03
            5552            5611     23.0045E-03     22.9322E-03
            5543            5611     23.0045E-03     22.9322E-03
            5553            5611     23.0045E-03     22.9322E-03
            5544            5611     23.0045E-03     22.9322E-03
            5544            5612     20.4446E-03     20.0124E-03
            5545            5612     20.4446E-03     20.0124E-03
            5553            5612     20.4446E-03     20.0124E-03
            5554            5612     20.4446E-03     20.0124E-03
            5554            5613     22.1046E-03     21.6294E-03
            5545            5613     22.1046E-03     21.6294E-03
            5546            5613     22.1046E-03     21.6294E-03
            5555            5613     22.1046E-03     21.6294E-03
            5546            5614     27.2676E-03     27.0304E-03
            5556            5614     27.2676E-03     27.0304E-03
            5547            5614     27.2676E-03     27.0304E-03
            5555            5614     27.2676E-03     27.0304E-03
            5547            5615     34.5341E-03     34.3866E-03
            5556            5615     34.5341E-03     34.3866E-03
            5548            5615     34.5341E-03     34.3866E-03
            5557            5615     34.5341E-03     34.3866E-03
            5548            5616     43.0230E-03     42.5847E-03
            5557            5616     43.0230E-03     42.5847E-03
            5558            5616     43.0230E-03     42.5847E-03
            5549            5616     43.0230E-03     42.5847E-03
            5551            5617     34.6929E-03     34.7577E-03
            5550            5617     34.6929E-03     34.7577E-03
            5559            5617     34.6929E-03     34.7577E-03
            5560            5617     34.6929E-03     34.7577E-03
            5560            5618     27.6046E-03     27.8374E-03
            5552            5618     27.6046E-03     27.8374E-03
            5561            5618     27.6046E-03     27.8374E-03
            5551            5618     27.6046E-03     27.8374E-03
            5561            5619     22.4413E-03     22.1491E-03
            5562            5619     22.4413E-03     22.1491E-03
            5552            5619     22.4413E-03     22.1491E-03
            5553            5619     22.4413E-03     22.1491E-03
            5562            5620     20.1516E-03     19.1611E-03
            5554            5620     20.1516E-03     19.1611E-03
            5563            5620     20.1516E-03     19.1611E-03
            5553            5620     20.1516E-03     19.1611E-03
            5554            5621     21.6866E-03     20.7502E-03
            5564            5621     21.6866E-03     20.7502E-03
            5563            5621     21.6866E-03     20.7502E-03
            5555            5621     21.6866E-03     20.7502E-03
            5555            5622     26.4607E-03     26.1492E-03
            5564            5622     26.4607E-03     26.1492E-03
            5556            5622     26.4607E-03     26.1492E-03
            5565            5622     26.4607E-03     26.1492E-03
            5566            5623     32.9815E-03     33.0180E-03
            5556            5623     32.9815E-03     33.0180E-03
            5557            5623     32.9815E-03     33.0180E-03
            5565            5623     32.9815E-03     33.0180E-03
            5557            5624     40.5955E-03     40.4092E-03
            5566            5624     40.5955E-03     40.4092E-03
            5558            5624     40.5955E-03     40.4092E-03
            5567            5624     40.5955E-03     40.4092E-03
            5568            5625     32.4119E-03     32.8025E-03
            5569            5625     32.4119E-03     32.8025E-03
            5560            5625     32.4119E-03     32.8025E-03
            5559            5625     32.4119E-03     32.8025E-03
            5560            5626     26.4737E-03     26.8446E-03
            5561            5626     26.4737E-03     26.8446E-03
            5570            5626     26.4737E-03     26.8446E-03
            5569            5626     26.4737E-03     26.8446E-03
            5571            5627     22.0153E-03     21.2332E-03
            5570            5627     22.0153E-03     21.2332E-03
            5562            5627     22.0153E-03     21.2332E-03
            5561            5627     22.0153E-03     21.2332E-03
            5563            5628     19.8538E-03     18.2714E-03
            5571            5628     19.8538E-03     18.2714E-03
            5572            5628     19.8538E-03     18.2714E-03
            5562            5628     19.8538E-03     18.2714E-03
            5563            5629     21.2217E-03     19.8168E-03
            5572            5629     21.2217E-03     19.8168E-03
            5573            5629     21.2217E-03     19.8168E-03
            5564            5629     21.2217E-03     19.8168E-03
            5574            5630     25.6604E-03     25.1271E-03
            5573            5630     25.6604E-03     25.1271E-03
            5565            5630     25.6604E-03     25.1271E-03
            5564            5630     25.6604E-03     25.1271E-03
            5575            5631     31.5390E-03     31.8546E-03
            5574            5631     31.5390E-03     31.8546E-03
            5565            5631     31.5390E-03     31.8546E-03
            5566            5631     31.5390E-03     31.8546E-03
            5575            5632     38.0858E-03     38.2842E-03
            5566            5632     38.0858E-03     38.2842E-03
            5567            5632     38.0858E-03     38.2842E-03
            5576            5632     38.0858E-03     38.2842E-03
            5569            5633     30.0480E-03     30.7482E-03
            5568            5633     30.0480E-03     30.7482E-03
            5577            5633     30.0480E-03     30.7482E-03
            5578            5633     30.0480E-03     30.7482E-03
            5569            5634     25.6219E-03     25.2125E-03
            5578            5634     25.6219E-03     25.2125E-03
            5579            5634     25.6219E-03     25.2125E-03
            5570            5634     25.6219E-03     25.2125E-03
            5580            5635     21.7219E-03     20.1717E-03
            5570            5635     21.7219E-03     20.1717E-03
            5579            5635     21.7219E-03     20.1717E-03
            5571            5635     21.7219E-03     20.1717E-03
            5572            5636     19.6994E-03     17.8169E-03
            5581            5636     19.6994E-03     17.8169E-03
            5571            5636     19.6994E-03     17.8169E-03
            5580            5636     19.6994E-03     17.8169E-03
            5581            5637     20.8583E-03     19.1947E-03
            5582            5637     20.8583E-03     19.1947E-03
            5572            5637     20.8583E-03     19.1947E-03
            5573            5637     20.8583E-03     19.1947E-03
            5573            5638     24.8028E-03     23.7592E-03
            5582            5638     24.8028E-03     23.7592E-03
            5574            5638     24.8028E-03     23.7592E-03
            5583            5638     24.8028E-03     23.7592E-03
            5583            5639     30.0755E-03     30.0311E-03
            5574            5639     30.0755E-03     30.0311E-03
            5575            5639     30.0755E-03     30.0311E-03
            5584            5639     30.0755E-03     30.0311E-03
            5576            5640     35.4873E-03     36.0501E-03
            5584            5640     35.4873E-03     36.0501E-03
            5585            5640     35.4873E-03     36.0501E-03
            5575            5640     35.4873E-03     36.0501E-03
            5586            5641     27.5225E-03     25.4958E-03
            5577            5641     27.5225E-03     25.4958E-03
            5587            5641     27.5225E-03     25.4958E-03
            5578            5641     27.5225E-03     25.4958E-03
            5578            5642     24.7739E-03     22.4379E-03
            5579            5642     24.7739E-03     22.4379E-03
            5588            5642     24.7739E-03     22.4379E-03
            5587            5642     24.7739E-03     22.4379E-03
            5579            5643     21.7080E-03     19.8179E-03
            5588            5643     21.7080E-03     19.8179E-03
            5580            5643     21.7080E-03     19.8179E-03
            5589            5643     21.7080E-03     19.8179E-03
            5589            5644     20.2737E-03     18.8032E-03
            5580            5644     20.2737E-03     18.8032E-03
            5581            5644     20.2737E-03     18.8032E-03
            5590            5644     20.2737E-03     18.8032E-03
            5591            5645     21.1634E-03     19.8368E-03
            5581            5645     21.1634E-03     19.8368E-03
            5582            5645     21.1634E-03     19.8368E-03
            5590            5645     21.1634E-03     19.8368E-03
            5582            5646     24.1245E-03     22.6562E-03
            5591            5646     24.1245E-03     22.6562E-03
            5583            5646     24.1245E-03     22.6562E-03
            5592            5646     24.1245E-03     22.6562E-03
            5593            5647     28.2610E-03     26.6402E-03
            5584            5647     28.2610E-03     26.6402E-03
            5592            5647     28.2610E-03     26.6402E-03
            5583            5647     28.2610E-03     26.6402E-03
            5585            5648     32.1381E-03     30.8011E-03
            5593            5648     32.1381E-03     30.8011E-03
            5584            5648     32.1381E-03     30.8011E-03
            5594            5648     32.1381E-03     30.8011E-03
            5595            5649     31.2298E-03     28.2626E-03
            5586            5649     31.2298E-03     28.2626E-03
            5596            5649     31.2298E-03     28.2626E-03
            5587            5649     31.2298E-03     28.2626E-03
            5587            5650     24.8856E-03     22.9840E-03
            5597            5650     24.8856E-03     22.9840E-03
            5596            5650     24.8856E-03     22.9840E-03
            5588            5650     24.8856E-03     22.9840E-03
            5597            5651     20.8580E-03     19.9852E-03
            5598            5651     20.8580E-03     19.9852E-03
            5589            5651     20.8580E-03     19.9852E-03
            5588            5651     20.8580E-03     19.9852E-03
            5599            5652     19.0835E-03     18.7448E-03
            5598            5652     19.0835E-03     18.7448E-03
            5590            5652     19.0835E-03     18.7448E-03
            5589            5652     19.0835E-03     18.7448E-03
            5600            5653     19.7994E-03     19.4012E-03
            5599            5653     19.7994E-03     19.4012E-03
            5590            5653     19.7994E-03     19.4012E-03
            5591            5653     19.7994E-03     19.4012E-03
            5591            5654     22.8912E-03     21.8558E-03
            5600            5654     22.8912E-03     21.8558E-03
            5601            5654     22.8912E-03     21.8558E-03
            5592            5654     22.8912E-03     21.8558E-03
            5593            5655     27.8052E-03     25.8342E-03
            5601            5655     27.8052E-03     25.8342E-03
            5602            5655     27.8052E-03     25.8342E-03
            5592            5655     27.8052E-03     25.8342E-03
            5603            5656     35.0455E-03     32.1991E-03
            5602            5656     35.0455E-03     32.1991E-03
            5594            5656     35.0455E-03     32.1991E-03
            5593            5656     35.0455E-03     32.1991E-03
            5595            5657     35.3418E-03     34.8864E-03
            5605            5657     35.3418E-03     34.8864E-03
            5596            5657     35.3418E-03     34.8864E-03
            5604            5657     35.3418E-03     34.8864E-03
            5596            5658     26.5478E-03     26.6778E-03
            5606            5658     26.5478E-03     26.6778E-03
            5597            5658     26.5478E-03     26.6778E-03
            5605            5658     26.5478E-03     26.6778E-03
            5607            5659     20.9827E-03     21.4283E-03
            5606            5659     20.9827E-03     21.4283E-03
            5597            5659     20.9827E-03     21.4283E-03
            5598            5659     20.9827E-03     21.4283E-03
            5599            5660     18.7356E-03     19.3694E-03
            5607            5660     18.7356E-03     19.3694E-03
            5608            5660     18.7356E-03     19.3694E-03
            5598            5660     18.7356E-03     19.3694E-03
            5600            5661     19.4221E-03     19.8980E-03
            5609            5661     19.4221E-03     19.8980E-03
            5599            5661     19.4221E-03     19.8980E-03
            5608            5661     19.4221E-03     19.8980E-03
            5600            5662     22.8566E-03     22.8774E-03
            5610            5662     22.8566E-03     22.8774E-03
            5601            5662     22.8566E-03     22.8774E-03
            5609            5662     22.8566E-03     22.8774E-03
            5610            5663     29.2735E-03     28.8782E-03
            5602            5663     29.2735E-03     28.8782E-03
            5611            5663     29.2735E-03     28.8782E-03
            5601            5663     29.2735E-03     28.8782E-03
            5602            5664     38.7258E-03     37.7101E-03
            5612            5664     38.7258E-03     37.7101E-03
            5603            5664     38.7258E-03     37.7101E-03
            5611            5664     38.7258E-03     37.7101E-03
            5604            5665     32.4283E-03     32.4847E-03
            5614            5665     32.4283E-03     32.4847E-03
            5613            5665     32.4283E-03     32.4847E-03
            5605            5665     32.4283E-03     32.4847E-03
            5606            5666     27.1010E-03     27.6286E-03
            5614            5666     27.1010E-03     27.6286E-03
            5605            5666     27.1010E-03     27.6286E-03
            5615            5666     27.1010E-03     27.6286E-03
            5616            5667     22.7609E-03     23.5880E-03
            5615            5667     22.7609E-03     23.5880E-03
            5607            5667     22.7609E-03     23.5880E-03
            5606            5667     22.7609E-03     23.5880E-03
            5608            5668     20.9628E-03     21.8853E-03
            5607            5668     20.9628E-03     21.8853E-03
            5617            5668     20.9628E-03     21.8853E-03
            5616            5668     20.9628E-03     21.8853E-03
            5609            5669     21.5759E-03     22.4096E-03
            5617            5669     21.5759E-03     22.4096E-03
            5608            5669     21.5759E-03     22.4096E-03
            5618            5669     21.5759E-03     22.4096E-03
            5619            5670     24.4467E-03     25.1036E-03
            5609            5670     24.4467E-03     25.1036E-03
            5618            5670     24.4467E-03     25.1036E-03
            5610            5670     24.4467E-03     25.1036E-03
            5619            5671     29.5960E-03     30.0107E-03
            5620            5671     29.5960E-03     30.0107E-03
            5611            5671     29.5960E-03     30.0107E-03
            5610            5671     29.5960E-03     30.0107E-03
            5612            5672     35.4504E-03     35.4553E-03
            5620            5672     35.4504E-03     35.4553E-03
            5621            5672     35.4504E-03     35.4553E-03
            5611            5672     35.4504E-03     35.4553E-03
            5613            5673     29.2363E-03     29.1574E-03
            5622            5673     29.2363E-03     29.1574E-03
            5614            5673     29.2363E-03     29.1574E-03
            5623            5673     29.2363E-03     29.1574E-03
            5624            5674     25.7447E-03     26.0424E-03
            5623            5674     25.7447E-03     26.0424E-03
            5614            5674     25.7447E-03     26.0424E-03
            5615            5674     25.7447E-03     26.0424E-03
            5615            5675     23.3304E-03     24.0057E-03
            5624            5675     23.3304E-03     24.0057E-03
            5625            5675     23.3304E-03     24.0057E-03
            5616            5675     23.3304E-03     24.0057E-03
            5625            5676     22.1706E-03     22.9703E-03
            5626            5676     22.1706E-03     22.9703E-03
            5617            5676     22.1706E-03     22.9703E-03
            5616            5676     22.1706E-03     22.9703E-03
            5618            5677     22.7156E-03     23.4725E-03
            5627            5677     22.7156E-03     23.4725E-03
            5626            5677     22.7156E-03     23.4725E-03
            5617            5677     22.7156E-03     23.4725E-03
            5628            5678     24.9005E-03     25.4724E-03
            5619            5678     24.9005E-03     25.4724E-03
            5618            5678     24.9005E-03     25.4724E-03
            5627            5678     24.9005E-03     25.4724E-03
            5629            5679     28.1121E-03     28.2753E-03
            5628            5679     28.1121E-03     28.2753E-03
            5619            5679     28.1121E-03     28.2753E-03
            5620            5679     28.1121E-03     28.2753E-03
            5630            5680     32.1390E-03     31.8558E-03
            5621            5680     32.1390E-03     31.8558E-03
            5629            5680     32.1390E-03     31.8558E-03
            5620            5680     32.1390E-03     31.8558E-03
            5632            5681     26.8676E-03     26.7388E-03
            5631            5681     26.8676E-03     26.7388E-03
            5623            5681     26.8676E-03     26.7388E-03
            5622            5681     26.8676E-03     26.7388E-03
            5624            5682     24.2927E-03     24.4740E-03
            5623            5682     24.2927E-03     24.4740E-03
            5633            5682     24.2927E-03     24.4740E-03
            5632            5682     24.2927E-03     24.4740E-03
            5633            5683     22.9544E-03     23.3468E-03
            5625            5683     22.9544E-03     23.3468E-03
            5624            5683     22.9544E-03     23.3468E-03
            5634            5683     22.9544E-03     23.3468E-03
            5626            5684     22.6180E-03     23.1123E-03
            5635            5684     22.6180E-03     23.1123E-03
            5625            5684     22.6180E-03     23.1123E-03
            5634            5684     22.6180E-03     23.1123E-03
            5636            5685     23.1273E-03     23.5698E-03
            5635            5685     23.1273E-03     23.5698E-03
            5626            5685     23.1273E-03     23.5698E-03
            5627            5685     23.1273E-03     23.5698E-03
            5628            5686     24.4124E-03     24.6453E-03
            5627            5686     24.4124E-03     24.6453E-03
            5636            5686     24.4124E-03     24.6453E-03
            5637            5686     24.4124E-03     24.6453E-03
            5638            5687     26.5127E-03     26.4730E-03
            5628            5687     26.5127E-03     26.4730E-03
            5637            5687     26.5127E-03     26.4730E-03
            5629            5687     26.5127E-03     26.4730E-03
            5629            5688     29.5935E-03     29.2835E-03
            5638            5688     29.5935E-03     29.2835E-03
            5630            5688     29.5935E-03     29.2835E-03
            5639            5688     29.5935E-03     29.2835E-03
            5640            5689     24.5319E-03     24.4698E-03
            5632            5689     24.5319E-03     24.4698E-03
            5631            5689     24.5319E-03     24.4698E-03
            5641            5689     24.5319E-03     24.4698E-03
            5633            5690     23.0258E-03     23.1773E-03
            5632            5690     23.0258E-03     23.1773E-03
            5641            5690     23.0258E-03     23.1773E-03
            5642            5690     23.0258E-03     23.1773E-03
            5634            5691     22.4950E-03     22.7073E-03
            5643            5691     22.4950E-03     22.7073E-03
            5642            5691     22.4950E-03     22.7073E-03
            5633            5691     22.4950E-03     22.7073E-03
            5643            5692     22.6036E-03     22.7683E-03
            5635            5692     22.6036E-03     22.7683E-03
            5634            5692     22.6036E-03     22.7683E-03
            5644            5692     22.6036E-03     22.7683E-03
            5636            5693     23.0567E-03     23.1533E-03
            5644            5693     23.0567E-03     23.1533E-03
            5635            5693     23.0567E-03     23.1533E-03
            5645            5693     23.0567E-03     23.1533E-03
            5645            5694     23.8110E-03     23.8376E-03
            5637            5694     23.8110E-03     23.8376E-03
            5636            5694     23.8110E-03     23.8376E-03
            5646            5694     23.8110E-03     23.8376E-03
            5647            5695     25.0613E-03     24.9860E-03
            5638            5695     25.0613E-03     24.9860E-03
            5646            5695     25.0613E-03     24.9860E-03
            5637            5695     25.0613E-03     24.9860E-03
            5638            5696     27.0884E-03     26.8203E-03
            5639            5696     27.0884E-03     26.8203E-03
            5647            5696     27.0884E-03     26.8203E-03
            5648            5696     27.0884E-03     26.8203E-03
            5640            5697     22.3540E-03     22.3812E-03
            5650            5697     22.3540E-03     22.3812E-03
            5649            5697     22.3540E-03     22.3812E-03
            5641            5697     22.3540E-03     22.3812E-03
            5642            5698     21.8223E-03     21.9839E-03
            5651            5698     21.8223E-03     21.9839E-03
            5650            5698     21.8223E-03     21.9839E-03
            5641            5698     21.8223E-03     21.9839E-03
            5643            5699     22.0610E-03     22.0934E-03
            5651            5699     22.0610E-03     22.0934E-03
            5652            5699     22.0610E-03     22.0934E-03
            5642            5699     22.0610E-03     22.0934E-03
            5652            5700     22.4643E-03     22.3245E-03
            5644            5700     22.4643E-03     22.3245E-03
            5643            5700     22.4643E-03     22.3245E-03
            5653            5700     22.4643E-03     22.3245E-03
            5644            5701     22.8540E-03     22.6602E-03
            5645            5701     22.8540E-03     22.6602E-03
            5653            5701     22.8540E-03     22.6602E-03
            5654            5701     22.8540E-03     22.6602E-03
            5646            5702     23.2099E-03     23.0842E-03
            5655            5702     23.2099E-03     23.0842E-03
            5645            5702     23.2099E-03     23.0842E-03
            5654            5702     23.2099E-03     23.0842E-03
            5647            5703     23.6546E-03     23.5826E-03
            5656            5703     23.6546E-03     23.5826E-03
            5655            5703     23.6546E-03     23.5826E-03
            5646            5703     23.6546E-03     23.5826E-03
            5648            5704     24.7029E-03     24.5293E-03
            5656            5704     24.7029E-03     24.5293E-03
            5647            5704     24.7029E-03     24.5293E-03
            5657            5704     24.7029E-03     24.5293E-03
            5659            5705     20.3287E-03     20.5157E-03
            5649            5705     20.3287E-03     20.5157E-03
            5658            5705     20.3287E-03     20.5157E-03
            5650            5705     20.3287E-03     20.5157E-03
            5660            5706     20.8657E-03     21.0178E-03
            5650            5706     20.8657E-03     21.0178E-03
            5659            5706     20.8657E-03     21.0178E-03
            5651            5706     20.8657E-03     21.0178E-03
            5652            5707     21.6648E-03     21.4852E-03
            5651            5707     21.6648E-03     21.4852E-03
            5661            5707     21.6648E-03     21.4852E-03
            5660            5707     21.6648E-03     21.4852E-03
            5662            5708     22.2493E-03     21.7702E-03
            5653            5708     22.2493E-03     21.7702E-03
            5652            5708     22.2493E-03     21.7702E-03
            5661            5708     22.2493E-03     21.7702E-03
            5663            5709     22.5617E-03     22.0697E-03
            5662            5709     22.5617E-03     22.0697E-03
            5654            5709     22.5617E-03     22.0697E-03
            5653            5709     22.5617E-03     22.0697E-03
            5663            5710     22.6183E-03     22.3492E-03
            5664            5710     22.6183E-03     22.3492E-03
            5655            5710     22.6183E-03     22.3492E-03
            5654            5710     22.6183E-03     22.3492E-03
            5656            5711     22.4388E-03     22.4162E-03
            5655            5711     22.4388E-03     22.4162E-03
            5664            5711     22.4388E-03     22.4162E-03
            5665            5711     22.4388E-03     22.4162E-03
            5657            5712     22.4399E-03     22.4201E-03
            5656            5712     22.4399E-03     22.4201E-03
            5666            5712     22.4399E-03     22.4201E-03
            5665            5712     22.4399E-03     22.4201E-03
            5659            5713     18.4759E-03     18.8606E-03
            5658            5713     18.4759E-03     18.8606E-03
            5667            5713     18.4759E-03     18.8606E-03
            5668            5713     18.4759E-03     18.8606E-03
            5660            5714     20.2028E-03     20.2803E-03
            5659            5714     20.2028E-03     20.2803E-03
            5669            5714     20.2028E-03     20.2803E-03
            5668            5714     20.2028E-03     20.2803E-03
            5660            5715     21.4101E-03     20.8684E-03
            5669            5715     21.4101E-03     20.8684E-03
            5670            5715     21.4101E-03     20.8684E-03
            5661            5715     21.4101E-03     20.8684E-03
            5671            5716     21.8437E-03     21.0313E-03
            5661            5716     21.8437E-03     21.0313E-03
            5662            5716     21.8437E-03     21.0313E-03
            5670            5716     21.8437E-03     21.0313E-03
            5662            5717     22.0648E-03     21.3045E-03
            5663            5717     22.0648E-03     21.3045E-03
            5671            5717     22.0648E-03     21.3045E-03
            5672            5717     22.0648E-03     21.3045E-03
            5673            5718     22.0997E-03     21.6355E-03
            5664            5718     22.0997E-03     21.6355E-03
            5663            5718     22.0997E-03     21.6355E-03
            5672            5718     22.0997E-03     21.6355E-03
            5665            5719     21.4448E-03     21.4581E-03
            5664            5719     21.4448E-03     21.4581E-03
            5674            5719     21.4448E-03     21.4581E-03
            5673            5719     21.4448E-03     21.4581E-03
            5674            5720     20.2706E-03     20.4859E-03
            5675            5720     20.2706E-03     20.4859E-03
            5665            5720     20.2706E-03     20.4859E-03
            5666            5720     20.2706E-03     20.4859E-03
            5676            5721     17.0406E-03     17.5027E-03
            5677            5721     17.0406E-03     17.5027E-03
            5668            5721     17.0406E-03     17.5027E-03
            5667            5721     17.0406E-03     17.5027E-03
            5669            5722     19.9886E-03     19.5390E-03
            5677            5722     19.9886E-03     19.5390E-03
            5678            5722     19.9886E-03     19.5390E-03
            5668            5722     19.9886E-03     19.5390E-03
            5678            5723     21.0153E-03     20.1088E-03
            5679            5723     21.0153E-03     20.1088E-03
            5669            5723     21.0153E-03     20.1088E-03
            5670            5723     21.0153E-03     20.1088E-03
            5679            5724     21.2761E-03     20.3231E-03
            5670            5724     21.2761E-03     20.3231E-03
            5680            5724     21.2761E-03     20.3231E-03
            5671            5724     21.2761E-03     20.3231E-03
            5681            5725     21.4199E-03     20.5447E-03
            5671            5725     21.4199E-03     20.5447E-03
            5680            5725     21.4199E-03     20.5447E-03
            5672            5725     21.4199E-03     20.5447E-03
            5673            5726     21.4138E-03     20.7570E-03
            5672            5726     21.4138E-03     20.7570E-03
            5682            5726     21.4138E-03     20.7570E-03
            5681            5726     21.4138E-03     20.7570E-03
            5683            5727     20.6993E-03     20.5142E-03
            5673            5727     20.6993E-03     20.5142E-03
            5682            5727     20.6993E-03     20.5142E-03
            5674            5727     20.6993E-03     20.5142E-03
            5675            5728     18.3460E-03     18.7412E-03
            5674            5728     18.3460E-03     18.7412E-03
            5683            5728     18.3460E-03     18.7412E-03
            5684            5728     18.3460E-03     18.7412E-03
            5686            5729     16.0824E-03     15.7251E-03
            5677            5729     16.0824E-03     15.7251E-03
            5685            5729     16.0824E-03     15.7251E-03
            5676            5729     16.0824E-03     15.7251E-03
            5687            5730     19.5827E-03     18.5982E-03
            5677            5730     19.5827E-03     18.5982E-03
            5686            5730     19.5827E-03     18.5982E-03
            5678            5730     19.5827E-03     18.5982E-03
            5687            5731     20.4733E-03     19.6395E-03
            5679            5731     20.4733E-03     19.6395E-03
            5688            5731     20.4733E-03     19.6395E-03
            5678            5731     20.4733E-03     19.6395E-03
            5688            5732     20.8682E-03     20.1608E-03
            5680            5732     20.8682E-03     20.1608E-03
            5679            5732     20.8682E-03     20.1608E-03
            5689            5732     20.8682E-03     20.1608E-03
            5689            5733     20.9282E-03     20.2921E-03
            5680            5733     20.9282E-03     20.2921E-03
            5690            5733     20.9282E-03     20.2921E-03
            5681            5733     20.9282E-03     20.2921E-03
            5681            5734     20.6467E-03     20.0346E-03
            5691            5734     20.6467E-03     20.0346E-03
            5690            5734     20.6467E-03     20.0346E-03
            5682            5734     20.6467E-03     20.0346E-03
            5691            5735     19.7553E-03     19.2173E-03
            5682            5735     19.7553E-03     19.2173E-03
            5683            5735     19.7553E-03     19.2173E-03
            5692            5735     19.7553E-03     19.2173E-03
            5693            5736     16.3829E-03     16.3619E-03
            5692            5736     16.3829E-03     16.3619E-03
            5684            5736     16.3829E-03     16.3619E-03
            5683            5736     16.3829E-03     16.3619E-03
            5694            5737     18.6416E-03     18.1333E-03
            5686            5737     18.6416E-03     18.1333E-03
            5695            5737     18.6416E-03     18.1333E-03
            5685            5737     18.6416E-03     18.1333E-03
            5687            5738     20.0089E-03     19.5865E-03
            5696            5738     20.0089E-03     19.5865E-03
            5695            5738     20.0089E-03     19.5865E-03
            5686            5738     20.0089E-03     19.5865E-03
            5697            5739     20.6308E-03     20.3687E-03
            5696            5739     20.6308E-03     20.3687E-03
            5688            5739     20.6308E-03     20.3687E-03
            5687            5739     20.6308E-03     20.3687E-03
            5698            5740     21.1330E-03     20.9219E-03
            5688            5740     21.1330E-03     20.9219E-03
            5689            5740     21.1330E-03     20.9219E-03
            5697            5740     21.1330E-03     20.9219E-03
            5689            5741     21.1764E-03     20.9749E-03
            5690            5741     21.1764E-03     20.9749E-03
            5699            5741     21.1764E-03     20.9749E-03
            5698            5741     21.1764E-03     20.9749E-03
            5691            5742     20.7899E-03     20.5133E-03
            5690            5742     20.7899E-03     20.5133E-03
            5699            5742     20.7899E-03     20.5133E-03
            5700            5742     20.7899E-03     20.5133E-03
            5701            5743     20.2060E-03     19.8429E-03
            5700            5743     20.2060E-03     19.8429E-03
            5692            5743     20.2060E-03     19.8429E-03
            5691            5743     20.2060E-03     19.8429E-03
            5702            5744     18.8697E-03     18.3851E-03
            5693            5744     18.8697E-03     18.3851E-03
            5701            5744     18.8697E-03     18.3851E-03
            5692            5744     18.8697E-03     18.3851E-03
            5695            5745     20.5937E-03     20.6962E-03
            5704            5745     20.5937E-03     20.6962E-03
            5694            5745     20.5937E-03     20.6962E-03
            5703            5745     20.5937E-03     20.6962E-03
            5695            5746     21.3829E-03     21.5830E-03
            5696            5746     21.3829E-03     21.5830E-03
            5705            5746     21.3829E-03     21.5830E-03
            5704            5746     21.3829E-03     21.5830E-03
            5696            5747     21.7002E-03     21.8292E-03
            5705            5747     21.7002E-03     21.8292E-03
            5697            5747     21.7002E-03     21.8292E-03
            5706            5747     21.7002E-03     21.8292E-03
            5706            5748     22.0158E-03     22.0588E-03
            5707            5748     22.0158E-03     22.0588E-03
            5698            5748     22.0158E-03     22.0588E-03
            5697            5748     22.0158E-03     22.0588E-03
            5707            5749     22.0700E-03     22.0849E-03
            5698            5749     22.0700E-03     22.0849E-03
            5699            5749     22.0700E-03     22.0849E-03
            5708            5749     22.0700E-03     22.0849E-03
            5708            5750     21.8911E-03     21.8940E-03
            5699            5750     21.8911E-03     21.8940E-03
            5700            5750     21.8911E-03     21.8940E-03
            5709            5750     21.8911E-03     21.8940E-03
            5710            5751     21.7218E-03     21.7666E-03
            5709            5751     21.7218E-03     21.7666E-03
            5700            5751     21.7218E-03     21.7666E-03
            5701            5751     21.7218E-03     21.7666E-03
            5710            5752     21.2211E-03     20.9981E-03
            5701            5752     21.2211E-03     20.9981E-03
            5702            5752     21.2211E-03     20.9981E-03
            5711            5752     21.2211E-03     20.9981E-03
            5704            5753     18.1227E-03     18.3442E-03
            5712            5753     18.1227E-03     18.3442E-03
            5713            5753     18.1227E-03     18.3442E-03
            5703            5753     18.1227E-03     18.3442E-03
            5704            5754     21.8212E-03     21.9448E-03
            5713            5754     21.8212E-03     21.9448E-03
            5714            5754     21.8212E-03     21.9448E-03
            5705            5754     21.8212E-03     21.9448E-03
            5714            5755     22.7603E-03     22.8128E-03
            5715            5755     22.7603E-03     22.8128E-03
            5705            5755     22.7603E-03     22.8128E-03
            5706            5755     22.7603E-03     22.8128E-03
            5706            5756     22.7720E-03     22.7968E-03
            5707            5756     22.7720E-03     22.7968E-03
            5715            5756     22.7720E-03     22.7968E-03
            5716            5756     22.7720E-03     22.7968E-03
            5708            5757     22.8007E-03     22.8204E-03
            5716            5757     22.8007E-03     22.8204E-03
            5717            5757     22.8007E-03     22.8204E-03
            5707            5757     22.8007E-03     22.8204E-03
            5717            5758     22.8433E-03     22.8930E-03
            5709            5758     22.8433E-03     22.8930E-03
            5718            5758     22.8433E-03     22.8930E-03
            5708            5758     22.8433E-03     22.8930E-03
            5719            5759     22.0579E-03     22.0406E-03
            5718            5759     22.0579E-03     22.0406E-03
            5710            5759     22.0579E-03     22.0406E-03
            5709            5759     22.0579E-03     22.0406E-03
            5711            5760     18.5729E-03     18.4828E-03
            5720            5760     18.5729E-03     18.4828E-03
            5719            5760     18.5729E-03     18.4828E-03
            5710            5760     18.5729E-03     18.4828E-03
            5713            5761     17.0199E-03     17.2503E-03
            5712            5761     17.0199E-03     17.2503E-03
            5721            5761     17.0199E-03     17.2503E-03
            5722            5761     17.0199E-03     17.2503E-03
            5722            5762     21.6222E-03     21.5568E-03
            5713            5762     21.6222E-03     21.5568E-03
            5714            5762     21.6222E-03     21.5568E-03
            5723            5762     21.6222E-03     21.5568E-03
            5724            5763     22.8940E-03     22.8188E-03
            5723            5763     22.8940E-03     22.8188E-03
            5714            5763     22.8940E-03     22.8188E-03
            5715            5763     22.8940E-03     22.8188E-03
            5724            5764     22.9480E-03     22.9208E-03
            5715            5764     22.9480E-03     22.9208E-03
            5716            5764     22.9480E-03     22.9208E-03
            5725            5764     22.9480E-03     22.9208E-03
            5725            5765     22.9535E-03     22.9408E-03
            5717            5765     22.9535E-03     22.9408E-03
            5716            5765     22.9535E-03     22.9408E-03
            5726            5765     22.9535E-03     22.9408E-03
            5718            5766     22.9012E-03     22.8842E-03
            5727            5766     22.9012E-03     22.8842E-03
            5726            5766     22.9012E-03     22.8842E-03
            5717            5766     22.9012E-03     22.8842E-03
            5718            5767     21.6963E-03     21.5703E-03
            5719            5767     21.6963E-03     21.5703E-03
            5728            5767     21.6963E-03     21.5703E-03
            5727            5767     21.6963E-03     21.5703E-03
            5729            5768     17.2599E-03     17.1405E-03
            5728            5768     17.2599E-03     17.1405E-03
            5720            5768     17.2599E-03     17.1405E-03
            5719            5768     17.2599E-03     17.1405E-03
            5721            5769     17.6982E-03     17.7237E-03
            5722            5769     17.6982E-03     17.7237E-03
            5730            5769     17.6982E-03     17.7237E-03
            5731            5769     17.6982E-03     17.7237E-03
            5722            5770     21.0879E-03     20.9319E-03
            5732            5770     21.0879E-03     20.9319E-03
            5731            5770     21.0879E-03     20.9319E-03
            5723            5770     21.0879E-03     20.9319E-03
            5732            5771     22.1950E-03     22.0965E-03
            5723            5771     22.1950E-03     22.0965E-03
            5724            5771     22.1950E-03     22.0965E-03
            5733            5771     22.1950E-03     22.0965E-03
            5725            5772     22.7006E-03     22.6500E-03
            5734            5772     22.7006E-03     22.6500E-03
            5724            5772     22.7006E-03     22.6500E-03
            5733            5772     22.7006E-03     22.6500E-03
            5734            5773     22.6834E-03     22.6616E-03
            5725            5773     22.6834E-03     22.6616E-03
            5726            5773     22.6834E-03     22.6616E-03
            5735            5773     22.6834E-03     22.6616E-03
            5735            5774     22.1581E-03     22.1074E-03
            5736            5774     22.1581E-03     22.1074E-03
            5727            5774     22.1581E-03     22.1074E-03
            5726            5774     22.1581E-03     22.1074E-03
            5727            5775     20.9631E-03     20.9359E-03
            5736            5775     20.9631E-03     20.9359E-03
            5728            5775     20.9631E-03     20.9359E-03
            5737            5775     20.9631E-03     20.9359E-03
            5738            5776     17.5303E-03     17.5179E-03
            5729            5776     17.5303E-03     17.5179E-03
            5728            5776     17.5303E-03     17.5179E-03
            5737            5776     17.5303E-03     17.5179E-03


  Minimum                            693.453E-06     710.381E-06
      At Element                            5369            5369
            Node                             768             768

  Maximum                            93.6688E-03     90.2541E-03
      At Element                            3868            3868
            Node                             182             182

           Total                         121.075         119.674


Field Output reported at element nodes for region: A320-1.Region_3
   Computation algorithm: EXTRAPOLATE_COMPUTE_AVERAGE
   Averaged at nodes
   Averaging regions: ODB_REGIONS

   Element Label      Node Label         S.Mises         S.Mises
                                          @Loc 1          @Loc 2
-----------------------------------------------------------------
            1760               1     959.525E-06     954.172E-06
               1               1     959.525E-06     954.172E-06
            3550               2     10.0977E-03     10.0452E-03
            1757               2     10.0977E-03     10.0452E-03
              29               2     10.0977E-03     10.0452E-03
               4               2     10.0977E-03     10.0452E-03
              28               3     4.24614E-03     5.48329E-03
             329               3     4.24614E-03     5.48329E-03
              25               4     228.961E-06     390.242E-06
              78               5     44.8111E-03     48.7861E-03
             379               5     44.8111E-03     48.7861E-03
            2348               5     44.8111E-03     48.7861E-03
            3501               5     44.8111E-03     48.7861E-03
             415               6     75.9481E-03     81.8421E-03
             378               6     75.9481E-03     81.8421E-03
            2343               7     55.8249E-03     58.7473E-03
            5288               7     55.8249E-03     58.7473E-03
             421               7     55.8249E-03     58.7473E-03
             384               7     55.8249E-03     58.7473E-03
             457               8     94.9443E-03     109.248E-03
             420               8     94.9443E-03     109.248E-03
             426               9     19.5814E-03     21.0554E-03
             505               9     19.5814E-03     21.0554E-03
            4106               9     19.5814E-03     21.0554E-03
            5283               9     19.5814E-03     21.0554E-03
             745              10     81.2908E-03     86.8675E-03
             462              10     81.2908E-03     86.8675E-03
             463              11     991.862E-06     985.630E-06
            6572              11     991.862E-06     985.630E-06
            4067              12     11.3085E-03     11.2554E-03
             468              12     11.3085E-03     11.2554E-03
            6567              12     11.3085E-03     11.2554E-03
             544              12     11.3085E-03     11.2554E-03
             504              13     3.57767E-03     5.21321E-03
            4307              13     3.57767E-03     5.21321E-03
             499              14     280.922E-06     435.786E-06
            6603              15     3.86389E-03     5.30011E-03
             784              15     3.86389E-03     5.30011E-03
            1781              17     3.84217E-03     5.04476E-03
            3850              17     3.84217E-03     5.04476E-03
            1784              18     228.961E-06     390.242E-06
            3801              21     112.883E-03     119.733E-03
            2384              21     112.883E-03     119.733E-03
            2379              22     119.561E-03     135.396E-03
            5324              22     119.561E-03     135.396E-03
            5319              25     73.1340E-03     76.4558E-03
            4346              25     73.1340E-03     76.4558E-03
            6608              27     280.922E-06     435.786E-06
            1760              29     967.701E-06     961.468E-06
               2              29     967.701E-06     961.468E-06
               1              29     967.701E-06     961.468E-06
            1759              29     967.701E-06     961.468E-06
            1759              30     981.220E-06     967.898E-06
               2              30     981.220E-06     967.898E-06
            1758              30     981.220E-06     967.898E-06
               3              30     981.220E-06     967.898E-06
               3              31     972.131E-06     954.554E-06
            1757              31     972.131E-06     954.554E-06
            1758              31     972.131E-06     954.554E-06
               4              31     972.131E-06     954.554E-06
               4              32     10.4471E-03     10.3680E-03
              29              32     10.4471E-03     10.3680E-03
               8              32     10.4471E-03     10.3680E-03
              79              32     10.4471E-03     10.3680E-03
               8              33     10.2259E-03     10.1344E-03
             129              33     10.2259E-03     10.1344E-03
              79              33     10.2259E-03     10.1344E-03
              12              33     10.2259E-03     10.1344E-03
              16              34     9.43837E-03     9.36882E-03
              12              34     9.43837E-03     9.36882E-03
             179              34     9.43837E-03     9.36882E-03
             129              34     9.43837E-03     9.36882E-03
              16              35     8.03965E-03     8.11435E-03
             229              35     8.03965E-03     8.11435E-03
              20              35     8.03965E-03     8.11435E-03
             179              35     8.03965E-03     8.11435E-03
              24              36     6.43823E-03     6.68183E-03
              20              36     6.43823E-03     6.68183E-03
             229              36     6.43823E-03     6.68183E-03
             279              36     6.43823E-03     6.68183E-03
             279              37     4.98105E-03     5.74100E-03
             329              37     4.98105E-03     5.74100E-03
              28              37     4.98105E-03     5.74100E-03
              24              37     4.98105E-03     5.74100E-03
              28              38     628.428E-06     647.988E-06
              27              38     628.428E-06     647.988E-06
              26              39     428.634E-06     376.302E-06
              27              39     428.634E-06     376.302E-06
              25              40     236.155E-06     362.961E-06
              26              40     236.155E-06     362.961E-06
              21              41     253.097E-06     310.833E-06
              25              41     253.097E-06     310.833E-06
              21              42     364.182E-06     333.512E-06
              17              42     364.182E-06     333.512E-06
              17              43     559.539E-06     546.024E-06
              13              43     559.539E-06     546.024E-06
               9              44     732.260E-06     722.452E-06
              13              44     732.260E-06     722.452E-06
               5              45     855.693E-06     847.351E-06
               9              45     855.693E-06     847.351E-06
               1              46     937.169E-06     930.208E-06
               5              46     937.169E-06     930.208E-06
              29              47     19.3591E-03     19.2123E-03
            3550              47     19.3591E-03     19.2123E-03
            3549              47     19.3591E-03     19.2123E-03
              30              47     19.3591E-03     19.2123E-03
            3549              48     19.4409E-03     19.3420E-03
              30              48     19.4409E-03     19.3420E-03
              31              48     19.4409E-03     19.3420E-03
            3548              48     19.4409E-03     19.3420E-03
            3547              49     19.3949E-03     19.3323E-03
            3548              49     19.3949E-03     19.3323E-03
              32              49     19.3949E-03     19.3323E-03
              31              49     19.3949E-03     19.3323E-03
            3547              50     19.3689E-03     19.4286E-03
            3546              50     19.3689E-03     19.4286E-03
              32              50     19.3689E-03     19.4286E-03
              33              50     19.3689E-03     19.4286E-03
              34              51     19.6961E-03     19.5190E-03
            3545              51     19.6961E-03     19.5190E-03
              33              51     19.6961E-03     19.5190E-03
            3546              51     19.6961E-03     19.5190E-03
              35              52     19.6547E-03     19.2767E-03
            3545              52     19.6547E-03     19.2767E-03
              34              52     19.6547E-03     19.2767E-03
            3544              52     19.6547E-03     19.2767E-03
            3544              53     18.6198E-03     18.5456E-03
            3543              53     18.6198E-03     18.5456E-03
              36              53     18.6198E-03     18.5456E-03
              35              53     18.6198E-03     18.5456E-03
              37              54     18.0570E-03     17.8590E-03
            3543              54     18.0570E-03     17.8590E-03
              36              54     18.0570E-03     17.8590E-03
            3542              54     18.0570E-03     17.8590E-03
              38              55     18.2685E-03     17.8650E-03
            3542              55     18.2685E-03     17.8650E-03
              37              55     18.2685E-03     17.8650E-03
            3541              55     18.2685E-03     17.8650E-03
              39              56     18.4257E-03     18.0676E-03
              38              56     18.4257E-03     18.0676E-03
            3540              56     18.4257E-03     18.0676E-03
            3541              56     18.4257E-03     18.0676E-03
            3540              57     18.5452E-03     18.2475E-03
              40              57     18.5452E-03     18.2475E-03
            3539              57     18.5452E-03     18.2475E-03
              39              57     18.5452E-03     18.2475E-03
            3539              58     18.6277E-03     18.5100E-03
              41              58     18.6277E-03     18.5100E-03
            3538              58     18.6277E-03     18.5100E-03
              40              58     18.6277E-03     18.5100E-03
            3537              59     18.7804E-03     18.8372E-03
            3538              59     18.7804E-03     18.8372E-03
              42              59     18.7804E-03     18.8372E-03
              41              59     18.7804E-03     18.8372E-03
            3537              60     18.9167E-03     19.0193E-03
              43              60     18.9167E-03     19.0193E-03
            3536              60     18.9167E-03     19.0193E-03
              42              60     18.9167E-03     19.0193E-03
              44              61     18.8475E-03     19.5426E-03
            3535              61     18.8475E-03     19.5426E-03
              43              61     18.8475E-03     19.5426E-03
            3536              61     18.8475E-03     19.5426E-03
            3535              62     19.7970E-03     19.7135E-03
            3534              62     19.7970E-03     19.7135E-03
              44              62     19.7970E-03     19.7135E-03
              45              62     19.7970E-03     19.7135E-03
            3534              63     19.7491E-03     19.2176E-03
            3533              63     19.7491E-03     19.2176E-03
              46              63     19.7491E-03     19.2176E-03
              45              63     19.7491E-03     19.2176E-03
              47              64     18.0809E-03     18.5516E-03
            3533              64     18.0809E-03     18.5516E-03
              46              64     18.0809E-03     18.5516E-03
            3532              64     18.0809E-03     18.5516E-03
              48              65     17.7838E-03     17.5907E-03
            3531              65     17.7838E-03     17.5907E-03
            3532              65     17.7838E-03     17.5907E-03
              47              65     17.7838E-03     17.5907E-03
            3531              66     18.3147E-03     17.5777E-03
              48              66     18.3147E-03     17.5777E-03
              49              66     18.3147E-03     17.5777E-03
            3530              66     18.3147E-03     17.5777E-03
              49              67     18.6023E-03     18.1558E-03
            3530              67     18.6023E-03     18.1558E-03
            3529              67     18.6023E-03     18.1558E-03
              50              67     18.6023E-03     18.1558E-03
              50              68     18.8827E-03     18.4618E-03
            3528              68     18.8827E-03     18.4618E-03
              51              68     18.8827E-03     18.4618E-03
            3529              68     18.8827E-03     18.4618E-03
            3528              69     19.0491E-03     18.9521E-03
            3527              69     19.0491E-03     18.9521E-03
              52              69     19.0491E-03     18.9521E-03
              51              69     19.0491E-03     18.9521E-03
              52              70     19.3035E-03     19.4782E-03
            3526              70     19.3035E-03     19.4782E-03
              53              70     19.3035E-03     19.4782E-03
            3527              70     19.3035E-03     19.4782E-03
            3525              71     19.5238E-03     19.7269E-03
              54              71     19.5238E-03     19.7269E-03
              53              71     19.5238E-03     19.7269E-03
            3526              71     19.5238E-03     19.7269E-03
              55              72     19.3640E-03     20.5632E-03
            3525              72     19.3640E-03     20.5632E-03
            3524              72     19.3640E-03     20.5632E-03
              54              72     19.3640E-03     20.5632E-03
              55              73     20.8539E-03     20.6394E-03
            3524              73     20.8539E-03     20.6394E-03
              56              73     20.8539E-03     20.6394E-03
            3523              73     20.8539E-03     20.6394E-03
              57              74     20.6339E-03     19.9750E-03
              56              74     20.6339E-03     19.9750E-03
            3522              74     20.6339E-03     19.9750E-03
            3523              74     20.6339E-03     19.9750E-03
            3521              75     18.3845E-03     19.6848E-03
            3522              75     18.3845E-03     19.6848E-03
              57              75     18.3845E-03     19.6848E-03
              58              75     18.3845E-03     19.6848E-03
              59              76     18.8264E-03     18.5456E-03
            3520              76     18.8264E-03     18.5456E-03
              58              76     18.8264E-03     18.5456E-03
            3521              76     18.8264E-03     18.5456E-03
              60              77     19.7109E-03     18.6270E-03
            3519              77     19.7109E-03     18.6270E-03
            3520              77     19.7109E-03     18.6270E-03
              59              77     19.7109E-03     18.6270E-03
            3518              78     19.8827E-03     19.5638E-03
            3519              78     19.8827E-03     19.5638E-03
              60              78     19.8827E-03     19.5638E-03
              61              78     19.8827E-03     19.5638E-03
            3517              79     20.3447E-03     19.8488E-03
              62              79     20.3447E-03     19.8488E-03
              61              79     20.3447E-03     19.8488E-03
            3518              79     20.3447E-03     19.8488E-03
            3517              80     20.5684E-03     20.5160E-03
            3516              80     20.5684E-03     20.5160E-03
              63              80     20.5684E-03     20.5160E-03
              62              80     20.5684E-03     20.5160E-03
            3516              81     20.8963E-03     21.1564E-03
            3515              81     20.8963E-03     21.1564E-03
              64              81     20.8963E-03     21.1564E-03
              63              81     20.8963E-03     21.1564E-03
              65              82     21.1973E-03     21.4230E-03
            3514              82     21.1973E-03     21.4230E-03
              64              82     21.1973E-03     21.4230E-03
            3515              82     21.1973E-03     21.4230E-03
            3514              83     20.9409E-03     22.5463E-03
            3513              83     20.9409E-03     22.5463E-03
              65              83     20.9409E-03     22.5463E-03
              66              83     20.9409E-03     22.5463E-03
              67              84     22.9252E-03     22.4532E-03
            3513              84     22.9252E-03     22.4532E-03
            3512              84     22.9252E-03     22.4532E-03
              66              84     22.9252E-03     22.4532E-03
              68              85     22.4703E-03     21.7173E-03
            3511              85     22.4703E-03     21.7173E-03
            3512              85     22.4703E-03     21.7173E-03
              67              85     22.4703E-03     21.7173E-03
              68              86     19.5715E-03     21.8579E-03
            3511              86     19.5715E-03     21.8579E-03
            3510              86     19.5715E-03     21.8579E-03
              69              86     19.5715E-03     21.8579E-03
            3509              87     20.8873E-03     20.5481E-03
            3510              87     20.8873E-03     20.5481E-03
              70              87     20.8873E-03     20.5481E-03
              69              87     20.8873E-03     20.5481E-03
              71              88     22.0830E-03     20.8361E-03
            3508              88     22.0830E-03     20.8361E-03
              70              88     22.0830E-03     20.8361E-03
            3509              88     22.0830E-03     20.8361E-03
            3508              89     21.9836E-03     22.0677E-03
              72              89     21.9836E-03     22.0677E-03
            3507              89     21.9836E-03     22.0677E-03
              71              89     21.9836E-03     22.0677E-03
            3507              90     22.4708E-03     22.3411E-03
              73              90     22.4708E-03     22.3411E-03
            3506              90     22.4708E-03     22.3411E-03
              72              90     22.4708E-03     22.3411E-03
              74              91     22.9703E-03     23.0007E-03
            3506              91     22.9703E-03     23.0007E-03
              73              91     22.9703E-03     23.0007E-03
            3505              91     22.9703E-03     23.0007E-03
            3505              92     23.2270E-03     23.3292E-03
              75              92     23.2270E-03     23.3292E-03
            3504              92     23.2270E-03     23.3292E-03
              74              92     23.2270E-03     23.3292E-03
              76              93     22.9205E-03     24.6407E-03
            3504              93     22.9205E-03     24.6407E-03
            3503              93     22.9205E-03     24.6407E-03
              75              93     22.9205E-03     24.6407E-03
              77              94     25.2709E-03     24.3810E-03
            3502              94     25.2709E-03     24.3810E-03
              76              94     25.2709E-03     24.3810E-03
            3503              94     25.2709E-03     24.3810E-03
            3501              95     24.5442E-03     23.7152E-03
              78              95     24.5442E-03     23.7152E-03
            3502              95     24.5442E-03     23.7152E-03
              77              95     24.5442E-03     23.7152E-03
             379              96     31.5120E-03     34.1862E-03
             385              96     31.5120E-03     34.1862E-03
              78              96     31.5120E-03     34.1862E-03
             128              96     31.5120E-03     34.1862E-03
             385              97     28.0435E-03     28.5545E-03
             391              97     28.0435E-03     28.5545E-03
             128              97     28.0435E-03     28.5545E-03
             178              97     28.0435E-03     28.5545E-03
             178              98     35.9451E-03     39.2576E-03
             391              98     35.9451E-03     39.2576E-03
             228              98     35.9451E-03     39.2576E-03
             397              98     35.9451E-03     39.2576E-03
             228              99     47.6192E-03     54.8348E-03
             403              99     47.6192E-03     54.8348E-03
             397              99     47.6192E-03     54.8348E-03
             278              99     47.6192E-03     54.8348E-03
             409             100     58.9025E-03     69.1790E-03
             278             100     58.9025E-03     69.1790E-03
             328             100     58.9025E-03     69.1790E-03
             403             100     58.9025E-03     69.1790E-03
             328             101     70.0208E-03     78.4955E-03
             378             101     70.0208E-03     78.4955E-03
             409             101     70.0208E-03     78.4955E-03
             415             101     70.0208E-03     78.4955E-03
             377             102     80.8657E-03     78.1613E-03
             378             102     80.8657E-03     78.1613E-03
             377             103     78.2065E-03     73.7188E-03
             376             103     78.2065E-03     73.7188E-03
             376             104     71.7328E-03     73.7616E-03
             375             104     71.7328E-03     73.7616E-03
             375             105     71.4528E-03     69.9013E-03
             374             105     71.4528E-03     69.9013E-03
             374             106     69.3267E-03     69.2000E-03
             373             106     69.3267E-03     69.2000E-03
             372             107     68.2861E-03     66.7751E-03
             373             107     68.2861E-03     66.7751E-03
             372             108     65.7908E-03     66.7933E-03
             371             108     65.7908E-03     66.7933E-03
             370             109     68.3355E-03     64.2784E-03
             371             109     68.3355E-03     64.2784E-03
             369             110     68.8765E-03     64.8842E-03
             370             110     68.8765E-03     64.8842E-03
             369             111     65.8827E-03     73.3108E-03
             368             111     65.8827E-03     73.3108E-03
             368             112     71.2786E-03     69.0663E-03
             367             112     71.2786E-03     69.0663E-03
             367             113     68.3211E-03     64.4784E-03
             366             113     68.3211E-03     64.4784E-03
             366             114     61.9802E-03     63.8661E-03
             365             114     61.9802E-03     63.8661E-03
             365             115     61.1282E-03     59.8078E-03
             364             115     61.1282E-03     59.8078E-03
             363             116     58.6509E-03     58.4655E-03
             364             116     58.6509E-03     58.4655E-03
             362             117     56.7708E-03     56.3474E-03
             363             117     56.7708E-03     56.3474E-03
             361             118     55.1687E-03     53.9763E-03
             362             118     55.1687E-03     53.9763E-03
             361             119     52.6078E-03     53.1495E-03
             360             119     52.6078E-03     53.1495E-03
             359             120     53.7909E-03     50.6020E-03
             360             120     53.7909E-03     50.6020E-03
             359             121     53.7605E-03     50.2866E-03
             358             121     53.7605E-03     50.2866E-03
             357             122     52.1585E-03     57.9881E-03
             358             122     52.1585E-03     57.9881E-03
             357             123     56.9583E-03     55.4759E-03
             356             123     56.9583E-03     55.4759E-03
             356             124     53.8106E-03     50.7894E-03
             355             124     53.8106E-03     50.7894E-03
             355             125     47.8004E-03     49.4531E-03
             354             125     47.8004E-03     49.4531E-03
             354             126     46.3132E-03     45.2972E-03
             353             126     46.3132E-03     45.2972E-03
             352             127     43.4985E-03     43.4191E-03
             353             127     43.4985E-03     43.4191E-03
             352             128     41.2129E-03     40.8593E-03
             351             128     41.2129E-03     40.8593E-03
             351             129     39.0525E-03     38.2479E-03
             350             129     39.0525E-03     38.2479E-03
             350             130     36.3874E-03     36.4918E-03
             349             130     36.3874E-03     36.4918E-03
             348             131     36.0355E-03     33.8568E-03
             349             131     36.0355E-03     33.8568E-03
             347             132     35.3199E-03     32.6061E-03
             348             132     35.3199E-03     32.6061E-03
             346             133     35.5034E-03     39.3896E-03
             347             133     35.5034E-03     39.3896E-03
             345             134     39.6406E-03     38.9997E-03
             346             134     39.6406E-03     38.9997E-03
             345             135     36.2953E-03     34.2534E-03
             344             135     36.2953E-03     34.2534E-03
             343             136     30.7674E-03     32.1114E-03
             344             136     30.7674E-03     32.1114E-03
             342             137     28.5810E-03     27.9356E-03
             343             137     28.5810E-03     27.9356E-03
             342             138     25.4549E-03     25.4967E-03
             341             138     25.4549E-03     25.4967E-03
             340             139     22.7795E-03     22.5122E-03
             341             139     22.7795E-03     22.5122E-03
             339             140     20.0786E-03     19.7335E-03
             340             140     20.0786E-03     19.7335E-03
             339             141     17.4730E-03     17.0560E-03
             338             141     17.4730E-03     17.0560E-03
             337             142     15.7261E-03     14.6400E-03
             338             142     15.7261E-03     14.6400E-03
             336             143     14.8554E-03     13.1850E-03
             337             143     14.8554E-03     13.1850E-03
             336             144     16.1963E-03     17.8890E-03
             335             144     16.1963E-03     17.8890E-03
             334             145     17.9016E-03     18.1557E-03
             335             145     17.9016E-03     18.1557E-03
             333             146     13.9702E-03     12.7898E-03
             334             146     13.9702E-03     12.7898E-03
             333             147     8.63250E-03     9.57876E-03
             332             147     8.63250E-03     9.57876E-03
             332             148     5.95083E-03     5.16262E-03
             331             148     5.95083E-03     5.16262E-03
             330             149     5.00990E-03     3.84694E-03
             331             149     5.00990E-03     3.84694E-03
             330             150     6.56833E-03     7.22810E-03
             329             150     6.56833E-03     7.22810E-03
            2348             151     78.4412E-03     81.6855E-03
             379             151     78.4412E-03     81.6855E-03
            2347             151     78.4412E-03     81.6855E-03
             380             151     78.4412E-03     81.6855E-03
             381             152     88.1405E-03     90.6201E-03
            2347             152     88.1405E-03     90.6201E-03
             380             152     88.1405E-03     90.6201E-03
            2346             152     88.1405E-03     90.6201E-03
            2345             153     87.2779E-03     90.3571E-03
             382             153     87.2779E-03     90.3571E-03
             381             153     87.2779E-03     90.3571E-03
            2346             153     87.2779E-03     90.3571E-03
            2345             154     89.4518E-03     90.0286E-03
             382             154     89.4518E-03     90.0286E-03
            2344             154     89.4518E-03     90.0286E-03
             383             154     89.4518E-03     90.0286E-03
             383             155     89.7235E-03     90.7894E-03
             384             155     89.7235E-03     90.7894E-03
            2343             155     89.7235E-03     90.7894E-03
            2344             155     89.7235E-03     90.7894E-03
             427             156     53.7463E-03     62.9372E-03
             390             156     53.7463E-03     62.9372E-03
             384             156     53.7463E-03     62.9372E-03
             421             156     53.7463E-03     62.9372E-03
             427             157     55.8264E-03     71.0093E-03
             390             157     55.8264E-03     71.0093E-03
             396             157     55.8264E-03     71.0093E-03
             433             157     55.8264E-03     71.0093E-03
             402             158     60.9152E-03     80.9627E-03
             396             158     60.9152E-03     80.9627E-03
             439             158     60.9152E-03     80.9627E-03
             433             158     60.9152E-03     80.9627E-03
             408             159     67.8143E-03     93.1182E-03
             439             159     67.8143E-03     93.1182E-03
             445             159     67.8143E-03     93.1182E-03
             402             159     67.8143E-03     93.1182E-03
             445             160     74.4630E-03     103.699E-03
             414             160     74.4630E-03     103.699E-03
             408             160     74.4630E-03     103.699E-03
             451             160     74.4630E-03     103.699E-03
             420             161     86.3253E-03     108.349E-03
             414             161     86.3253E-03     108.349E-03
             457             161     86.3253E-03     108.349E-03
             451             161     86.3253E-03     108.349E-03
             420             162     98.1489E-03     93.1383E-03
             419             162     98.1489E-03     93.1383E-03
             419             163     92.9739E-03     87.8540E-03
             418             163     92.9739E-03     87.8540E-03
             418             164     86.5165E-03     84.8852E-03
             417             164     86.5165E-03     84.8852E-03
             417             165     84.5001E-03     80.8389E-03
             416             165     84.5001E-03     80.8389E-03
             415             166     76.5452E-03     81.8072E-03
             416             166     76.5452E-03     81.8072E-03
             422             167     27.1241E-03     25.6692E-03
            5288             167     27.1241E-03     25.6692E-03
            5287             167     27.1241E-03     25.6692E-03
             421             167     27.1241E-03     25.6692E-03
            5287             168     27.5474E-03     26.3670E-03
            5286             168     27.5474E-03     26.3670E-03
             423             168     27.5474E-03     26.3670E-03
             422             168     27.5474E-03     26.3670E-03
            5286             169     25.1890E-03     26.4592E-03
             423             169     25.1890E-03     26.4592E-03
             424             169     25.1890E-03     26.4592E-03
            5285             169     25.1890E-03     26.4592E-03
            5284             170     25.1190E-03     24.7723E-03
             424             170     25.1190E-03     24.7723E-03
             425             170     25.1190E-03     24.7723E-03
            5285             170     25.1190E-03     24.7723E-03
             425             171     24.3844E-03     25.3496E-03
            5284             171     24.3844E-03     25.3496E-03
            5283             171     24.3844E-03     25.3496E-03
             426             171     24.3844E-03     25.3496E-03
             426             172     30.0561E-03     32.4008E-03
             432             172     30.0561E-03     32.4008E-03
             505             172     30.0561E-03     32.4008E-03
             545             172     30.0561E-03     32.4008E-03
             585             173     42.9338E-03     46.5040E-03
             545             173     42.9338E-03     46.5040E-03
             432             173     42.9338E-03     46.5040E-03
             438             173     42.9338E-03     46.5040E-03
             438             174     54.9834E-03     60.2013E-03
             625             174     54.9834E-03     60.2013E-03
             585             174     54.9834E-03     60.2013E-03
             444             174     54.9834E-03     60.2013E-03
             665             175     65.1478E-03     73.3734E-03
             625             175     65.1478E-03     73.3734E-03
             450             175     65.1478E-03     73.3734E-03
             444             175     65.1478E-03     73.3734E-03
             705             176     72.7631E-03     83.5345E-03
             456             176     72.7631E-03     83.5345E-03
             665             176     72.7631E-03     83.5345E-03
             450             176     72.7631E-03     83.5345E-03
             705             177     78.5731E-03     87.0195E-03
             745             177     78.5731E-03     87.0195E-03
             456             177     78.5731E-03     87.0195E-03
             462             177     78.5731E-03     87.0195E-03
             461             178     89.3821E-03     85.9755E-03
             462             178     89.3821E-03     85.9755E-03
             461             179     92.9148E-03     86.1431E-03
             460             179     92.9148E-03     86.1431E-03
             459             180     89.8492E-03     94.9436E-03
             460             180     89.8492E-03     94.9436E-03
             459             181     101.219E-03     93.4458E-03
             458             181     101.219E-03     93.4458E-03
             458             182     105.015E-03     101.162E-03
             457             182     105.015E-03     101.162E-03
            6572             183     1.00083E-03     990.685E-06
             464             183     1.00083E-03     990.685E-06
             463             183     1.00083E-03     990.685E-06
            6571             183     1.00083E-03     990.685E-06
             465             184     1.00464E-03     994.789E-06
            6570             184     1.00464E-03     994.789E-06
            6571             184     1.00464E-03     994.789E-06
             464             184     1.00464E-03     994.789E-06
             465             185     996.756E-06     997.263E-06
             466             185     996.756E-06     997.263E-06
            6570             185     996.756E-06     997.263E-06
            6569             185     996.756E-06     997.263E-06
            6569             186     1.00802E-03     998.531E-06
             467             186     1.00802E-03     998.531E-06
             466             186     1.00802E-03     998.531E-06
            6568             186     1.00802E-03     998.531E-06
             468             187     1.00491E-03     979.713E-06
             467             187     1.00491E-03     979.713E-06
            6567             187     1.00491E-03     979.713E-06
            6568             187     1.00491E-03     979.713E-06
             474             188     11.4877E-03     11.4120E-03
            4107             188     11.4877E-03     11.4120E-03
            4067             188     11.4877E-03     11.4120E-03
             468             188     11.4877E-03     11.4120E-03
             474             189     11.0792E-03     11.0219E-03
             480             189     11.0792E-03     11.0219E-03
            4147             189     11.0792E-03     11.0219E-03
            4107             189     11.0792E-03     11.0219E-03
             486             190     10.1369E-03     10.0886E-03
            4147             190     10.1369E-03     10.0886E-03
            4187             190     10.1369E-03     10.0886E-03
             480             190     10.1369E-03     10.0886E-03
            4187             191     8.58194E-03     8.58756E-03
             492             191     8.58194E-03     8.58756E-03
             486             191     8.58194E-03     8.58756E-03
            4227             191     8.58194E-03     8.58756E-03
             498             192     6.49266E-03     6.74086E-03
            4227             192     6.49266E-03     6.74086E-03
             492             192     6.49266E-03     6.74086E-03
            4267             192     6.49266E-03     6.74086E-03
            4307             193     4.47873E-03     5.49950E-03
             498             193     4.47873E-03     5.49950E-03
             504             193     4.47873E-03     5.49950E-03
            4267             193     4.47873E-03     5.49950E-03
             503             194     1.05207E-03     1.04535E-03
             504             194     1.05207E-03     1.04535E-03
             503             195     784.470E-06     739.948E-06
             502             195     784.470E-06     739.948E-06
             501             196     469.348E-06     515.547E-06
             502             196     469.348E-06     515.547E-06
             501             197     331.658E-06     300.620E-06
             500             197     331.658E-06     300.620E-06
             500             198     265.262E-06     351.258E-06
             499             198     265.262E-06     351.258E-06
             493             199     255.524E-06     342.715E-06
             499             199     255.524E-06     342.715E-06
             493             200     321.215E-06     338.721E-06
             487             200     321.215E-06     338.721E-06
             487             201     541.756E-06     541.457E-06
             481             201     541.756E-06     541.457E-06
             475             202     744.632E-06     732.364E-06
             481             202     744.632E-06     732.364E-06
             475             203     879.063E-06     870.398E-06
             469             203     879.063E-06     870.398E-06
             463             204     965.966E-06     958.406E-06
             469             204     965.966E-06     958.406E-06
            4105             205     17.4526E-03     17.8481E-03
            4106             205     17.4526E-03     17.8481E-03
             505             205     17.4526E-03     17.8481E-03
             506             205     17.4526E-03     17.8481E-03
             507             206     21.4587E-03     20.5720E-03
             506             206     21.4587E-03     20.5720E-03
            4105             206     21.4587E-03     20.5720E-03
            4104             206     21.4587E-03     20.5720E-03
             508             207     21.8259E-03     21.8318E-03
            4103             207     21.8259E-03     21.8318E-03
            4104             207     21.8259E-03     21.8318E-03
             507             207     21.8259E-03     21.8318E-03
             509             208     20.3706E-03     21.8694E-03
            4103             208     20.3706E-03     21.8694E-03
            4102             208     20.3706E-03     21.8694E-03
             508             208     20.3706E-03     21.8694E-03
            4101             209     20.7842E-03     21.1591E-03
             509             209     20.7842E-03     21.1591E-03
             510             209     20.7842E-03     21.1591E-03
            4102             209     20.7842E-03     21.1591E-03
             510             210     20.7843E-03     21.0716E-03
             511             210     20.7843E-03     21.0716E-03
            4100             210     20.7843E-03     21.0716E-03
            4101             210     20.7843E-03     21.0716E-03
             512             211     20.7137E-03     20.5908E-03
            4100             211     20.7137E-03     20.5908E-03
            4099             211     20.7137E-03     20.5908E-03
             511             211     20.7137E-03     20.5908E-03
            4099             212     20.6954E-03     20.1602E-03
             513             212     20.6954E-03     20.1602E-03
             512             212     20.6954E-03     20.1602E-03
            4098             212     20.6954E-03     20.1602E-03
            4097             213     20.5439E-03     19.9128E-03
            4098             213     20.5439E-03     19.9128E-03
             514             213     20.5439E-03     19.9128E-03
             513             213     20.5439E-03     19.9128E-03
            4097             214     20.3011E-03     19.2166E-03
            4096             214     20.3011E-03     19.2166E-03
             514             214     20.3011E-03     19.2166E-03
             515             214     20.3011E-03     19.2166E-03
            4095             215     19.6507E-03     19.5807E-03
             515             215     19.6507E-03     19.5807E-03
             516             215     19.6507E-03     19.5807E-03
            4096             215     19.6507E-03     19.5807E-03
             517             216     19.6066E-03     20.2772E-03
            4094             216     19.6066E-03     20.2772E-03
             516             216     19.6066E-03     20.2772E-03
            4095             216     19.6066E-03     20.2772E-03
            4093             217     21.3433E-03     20.5625E-03
             518             217     21.3433E-03     20.5625E-03
             517             217     21.3433E-03     20.5625E-03
            4094             217     21.3433E-03     20.5625E-03
            4092             218     21.5065E-03     21.6199E-03
            4093             218     21.5065E-03     21.6199E-03
             518             218     21.5065E-03     21.6199E-03
             519             218     21.5065E-03     21.6199E-03
             520             219     20.3606E-03     21.5480E-03
            4092             219     20.3606E-03     21.5480E-03
            4091             219     20.3606E-03     21.5480E-03
             519             219     20.3606E-03     21.5480E-03
            4090             220     20.5973E-03     20.9984E-03
             520             220     20.5973E-03     20.9984E-03
             521             220     20.5973E-03     20.9984E-03
            4091             220     20.5973E-03     20.9984E-03
            4089             221     20.5422E-03     20.8789E-03
             522             221     20.5422E-03     20.8789E-03
            4090             221     20.5422E-03     20.8789E-03
             521             221     20.5422E-03     20.8789E-03
            4089             222     20.4512E-03     20.4835E-03
             523             222     20.4512E-03     20.4835E-03
             522             222     20.4512E-03     20.4835E-03
            4088             222     20.4512E-03     20.4835E-03
             523             223     20.4776E-03     20.0614E-03
            4088             223     20.4776E-03     20.0614E-03
            4087             223     20.4776E-03     20.0614E-03
             524             223     20.4776E-03     20.0614E-03
             524             224     20.3586E-03     19.7871E-03
             525             224     20.3586E-03     19.7871E-03
            4087             224     20.3586E-03     19.7871E-03
            4086             224     20.3586E-03     19.7871E-03
            4085             225     20.2827E-03     19.5705E-03
             525             225     20.2827E-03     19.5705E-03
             526             225     20.2827E-03     19.5705E-03
            4086             225     20.2827E-03     19.5705E-03
            4085             226     20.0117E-03     19.2048E-03
            4084             226     20.0117E-03     19.2048E-03
             526             226     20.0117E-03     19.2048E-03
             527             226     20.0117E-03     19.2048E-03
            4084             227     19.6401E-03     19.4843E-03
             527             227     19.6401E-03     19.4843E-03
             528             227     19.6401E-03     19.4843E-03
            4083             227     19.6401E-03     19.4843E-03
             528             228     20.0954E-03     20.1960E-03
             529             228     20.0954E-03     20.1960E-03
            4083             228     20.0954E-03     20.1960E-03
            4082             228     20.0954E-03     20.1960E-03
             530             229     21.4641E-03     20.8695E-03
             529             229     21.4641E-03     20.8695E-03
            4081             229     21.4641E-03     20.8695E-03
            4082             229     21.4641E-03     20.8695E-03
             531             230     21.5197E-03     21.5556E-03
            4080             230     21.5197E-03     21.5556E-03
             530             230     21.5197E-03     21.5556E-03
            4081             230     21.5197E-03     21.5556E-03
            4080             231     20.8612E-03     21.4134E-03
            4079             231     20.8612E-03     21.4134E-03
             532             231     20.8612E-03     21.4134E-03
             531             231     20.8612E-03     21.4134E-03
            4078             232     21.0056E-03     21.0925E-03
             532             232     21.0056E-03     21.0925E-03
             533             232     21.0056E-03     21.0925E-03
            4079             232     21.0056E-03     21.0925E-03
             534             233     20.9958E-03     21.0242E-03
             533             233     20.9958E-03     21.0242E-03
            4077             233     20.9958E-03     21.0242E-03
            4078             233     20.9958E-03     21.0242E-03
            4076             234     20.9641E-03     20.8246E-03
             534             234     20.9641E-03     20.8246E-03
             535             234     20.9641E-03     20.8246E-03
            4077             234     20.9641E-03     20.8246E-03
             535             235     20.9734E-03     20.6858E-03
            4075             235     20.9734E-03     20.6858E-03
            4076             235     20.9734E-03     20.6858E-03
             536             235     20.9734E-03     20.6858E-03
            4075             236     20.9423E-03     20.6116E-03
             536             236     20.9423E-03     20.6116E-03
            4074             236     20.9423E-03     20.6116E-03
             537             236     20.9423E-03     20.6116E-03
            4074             237     20.8972E-03     20.5142E-03
            4073             237     20.8972E-03     20.5142E-03
             537             237     20.8972E-03     20.5142E-03
             538             237     20.8972E-03     20.5142E-03
            4072             238     20.7496E-03     20.5227E-03
             538             238     20.7496E-03     20.5227E-03
             539             238     20.7496E-03     20.5227E-03
            4073             238     20.7496E-03     20.5227E-03
             539             239     21.1166E-03     20.9470E-03
            4072             239     21.1166E-03     20.9470E-03
            4071             239     21.1166E-03     20.9470E-03
             540             239     21.1166E-03     20.9470E-03
            4070             240     21.8456E-03     21.4790E-03
             540             240     21.8456E-03     21.4790E-03
             541             240     21.8456E-03     21.4790E-03
            4071             240     21.8456E-03     21.4790E-03
             541             241     21.8749E-03     21.7538E-03
             542             241     21.8749E-03     21.7538E-03
            4070             241     21.8749E-03     21.7538E-03
            4069             241     21.8749E-03     21.7538E-03
            4068             242     21.7332E-03     21.7037E-03
            4069             242     21.7332E-03     21.7037E-03
             543             242     21.7332E-03     21.7037E-03
             542             242     21.7332E-03     21.7037E-03
            4068             243     21.7303E-03     21.5590E-03
             544             243     21.7303E-03     21.5590E-03
            4067             243     21.7303E-03     21.5590E-03
             543             243     21.7303E-03     21.5590E-03
            6567             244     10.5894E-03     10.5285E-03
            6573             244     10.5894E-03     10.5285E-03
             544             244     10.5894E-03     10.5285E-03
             584             244     10.5894E-03     10.5285E-03
            6573             245     9.33038E-03     9.30018E-03
             624             245     9.33038E-03     9.30018E-03
            6579             245     9.33038E-03     9.30018E-03
             584             245     9.33038E-03     9.30018E-03
            6579             246     7.63056E-03     7.61967E-03
             664             246     7.63056E-03     7.61967E-03
            6585             246     7.63056E-03     7.61967E-03
             624             246     7.63056E-03     7.61967E-03
             704             247     5.46883E-03     5.51175E-03
             664             247     5.46883E-03     5.51175E-03
            6591             247     5.46883E-03     5.51175E-03
            6585             247     5.46883E-03     5.51175E-03
            6597             248     2.92444E-03     3.41530E-03
             744             248     2.92444E-03     3.41530E-03
            6591             248     2.92444E-03     3.41530E-03
             704             248     2.92444E-03     3.41530E-03
             784             249     2.73491E-03     3.88537E-03
             744             249     2.73491E-03     3.88537E-03
            6603             249     2.73491E-03     3.88537E-03
            6597             249     2.73491E-03     3.88537E-03
             783             250     6.93709E-03     8.03904E-03
             784             250     6.93709E-03     8.03904E-03
             783             251     7.61973E-03     8.42152E-03
             782             251     7.61973E-03     8.42152E-03
             781             252     12.4147E-03     11.4426E-03
             782             252     12.4147E-03     11.4426E-03
             780             253     17.1358E-03     17.2978E-03
             781             253     17.1358E-03     17.2978E-03
             780             254     12.0695E-03     13.6416E-03
             779             254     12.0695E-03     13.6416E-03
             778             255     8.75145E-03     8.08347E-03
             779             255     8.75145E-03     8.08347E-03
             777             256     13.2208E-03     13.0574E-03
             778             256     13.2208E-03     13.0574E-03
             777             257     17.5872E-03     17.4367E-03
             776             257     17.5872E-03     17.4367E-03
             776             258     21.4863E-03     21.3310E-03
             775             258     21.4863E-03     21.3310E-03
             774             259     25.2559E-03     25.0224E-03
             775             259     25.2559E-03     25.0224E-03
             774             260     28.8220E-03     28.8634E-03
             773             260     28.8220E-03     28.8634E-03
             772             261     32.9040E-03     32.0188E-03
             773             261     32.9040E-03     32.0188E-03
             772             262     35.7020E-03     37.2672E-03
             771             262     35.7020E-03     37.2672E-03
             770             263     42.8777E-03     40.3997E-03
             771             263     42.8777E-03     40.3997E-03
             770             264     47.6123E-03     46.2789E-03
             769             264     47.6123E-03     46.2789E-03
             768             265     39.9373E-03     44.9225E-03
             769             265     39.9373E-03     44.9225E-03
             768             266     38.0435E-03     35.9836E-03
             767             266     38.0435E-03     35.9836E-03
             767             267     41.3885E-03     39.1969E-03
             766             267     41.3885E-03     39.1969E-03
             765             268     43.3501E-03     43.8624E-03
             766             268     43.3501E-03     43.8624E-03
             765             269     47.3447E-03     46.5699E-03
             764             269     47.3447E-03     46.5699E-03
             763             270     50.4945E-03     50.2009E-03
             764             270     50.4945E-03     50.2009E-03
             763             271     53.7094E-03     53.3532E-03
             762             271     53.7094E-03     53.3532E-03
             762             272     56.8510E-03     56.7601E-03
             761             272     56.8510E-03     56.7601E-03
             761             273     60.6381E-03     59.2453E-03
             760             273     60.6381E-03     59.2453E-03
             759             274     62.5725E-03     64.7183E-03
             760             274     62.5725E-03     64.7183E-03
             759             275     70.8796E-03     66.7686E-03
             758             275     70.8796E-03     66.7686E-03
             757             276     75.5147E-03     72.9082E-03
             758             276     75.5147E-03     72.9082E-03
             756             277     66.2001E-03     74.4148E-03
             757             277     66.2001E-03     74.4148E-03
             755             278     66.5360E-03     63.3393E-03
             756             278     66.5360E-03     63.3393E-03
             754             279     69.0732E-03     65.3177E-03
             755             279     69.0732E-03     65.3177E-03
             754             280     69.0088E-03     70.1450E-03
             753             280     69.0088E-03     70.1450E-03
             752             281     73.0311E-03     71.8123E-03
             753             281     73.0311E-03     71.8123E-03
             752             282     75.7259E-03     75.3241E-03
             751             282     75.7259E-03     75.3241E-03
             751             283     78.5735E-03     78.3851E-03
             750             283     78.5735E-03     78.3851E-03
             749             284     82.1422E-03     80.3296E-03
             750             284     82.1422E-03     80.3296E-03
             748             285     83.4218E-03     85.9469E-03
             749             285     83.4218E-03     85.9469E-03
             748             286     92.5211E-03     87.1432E-03
             747             286     92.5211E-03     87.1432E-03
             747             287     97.0824E-03     93.4438E-03
             746             287     97.0824E-03     93.4438E-03
             745             288     86.0902E-03     92.9996E-03
             746             288     86.0902E-03     92.9996E-03
            1782             306     628.428E-06     647.988E-06
            1781             306     628.428E-06     647.988E-06
            1783             307     428.634E-06     376.302E-06
            1782             307     428.634E-06     376.302E-06
            1784             308     236.155E-06     362.961E-06
            1783             308     236.155E-06     362.961E-06
            1760             412     937.169E-06     930.208E-06
            1764             412     937.169E-06     930.208E-06
            1764             413     855.693E-06     847.351E-06
            1768             413     855.693E-06     847.351E-06
            1772             414     732.260E-06     722.452E-06
            1768             414     732.260E-06     722.452E-06
            1776             415     559.539E-06     546.024E-06
            1772             415     559.539E-06     546.024E-06
            1776             416     364.182E-06     333.512E-06
            1780             416     364.182E-06     333.512E-06
            1780             417     253.097E-06     310.833E-06
            1784             417     253.097E-06     310.833E-06
            3800             418     2.15477E-03     3.45955E-03
            1777             418     2.15477E-03     3.45955E-03
            3850             418     2.15477E-03     3.45955E-03
            1781             418     2.15477E-03     3.45955E-03
            3800             419     1.53658E-03     2.43209E-03
            1777             419     1.53658E-03     2.43209E-03
            3750             419     1.53658E-03     2.43209E-03
            1773             419     1.53658E-03     2.43209E-03
            3700             420     3.83496E-03     4.06574E-03
            3750             420     3.83496E-03     4.06574E-03
            1769             420     3.83496E-03     4.06574E-03
            1773             420     3.83496E-03     4.06574E-03
            3650             421     6.06328E-03     6.10498E-03
            3700             421     6.06328E-03     6.10498E-03
            1769             421     6.06328E-03     6.10498E-03
            1765             421     6.06328E-03     6.10498E-03
            3650             422     7.86755E-03     7.85363E-03
            1765             422     7.86755E-03     7.85363E-03
            1761             422     7.86755E-03     7.85363E-03
            3600             422     7.86755E-03     7.85363E-03
            3600             423     9.23385E-03     9.19411E-03
            1761             423     9.23385E-03     9.19411E-03
            3550             423     9.23385E-03     9.19411E-03
            1757             423     9.23385E-03     9.19411E-03
            3801             440     105.271E-03     101.051E-03
            3802             440     105.271E-03     101.051E-03
            3803             441     101.338E-03     95.6269E-03
            3802             441     101.338E-03     95.6269E-03
            3804             442     92.8221E-03     95.4319E-03
            3803             442     92.8221E-03     95.4319E-03
            3805             443     92.5643E-03     90.5287E-03
            3804             443     92.5643E-03     90.5287E-03
            3806             444     89.6488E-03     89.6778E-03
            3805             444     89.6488E-03     89.6778E-03
            3807             445     87.9880E-03     86.3935E-03
            3806             445     87.9880E-03     86.3935E-03
            3808             446     84.3190E-03     86.1047E-03
            3807             446     84.3190E-03     86.1047E-03
            3808             447     86.2570E-03     81.6320E-03
            3809             447     86.2570E-03     81.6320E-03
            3809             448     84.5448E-03     81.0091E-03
            3810             448     84.5448E-03     81.0091E-03
            3811             449     81.8750E-03     91.8265E-03
            3810             449     81.8750E-03     91.8265E-03
            3812             450     91.0137E-03     87.4401E-03
            3811             450     91.0137E-03     87.4401E-03
            3813             451     86.7922E-03     81.9656E-03
            3812             451     86.7922E-03     81.9656E-03
            3813             452     78.6774E-03     80.9876E-03
            3814             452     78.6774E-03     80.9876E-03
            3814             453     77.7906E-03     76.0508E-03
            3815             453     77.7906E-03     76.0508E-03
            3816             454     74.6621E-03     74.5270E-03
            3815             454     74.6621E-03     74.5270E-03
            3816             455     72.2345E-03     71.9116E-03
            3817             455     72.2345E-03     71.9116E-03
            3817             456     69.9703E-03     68.8101E-03
            3818             456     69.9703E-03     68.8101E-03
            3819             457     66.3350E-03     67.5303E-03
            3818             457     66.3350E-03     67.5303E-03
            3819             458     66.5792E-03     63.1420E-03
            3820             458     66.5792E-03     63.1420E-03
            3821             459     64.2613E-03     61.4211E-03
            3820             459     64.2613E-03     61.4211E-03
            3821             460     63.3861E-03     71.0959E-03
            3822             460     63.3861E-03     71.0959E-03
            3823             461     71.6309E-03     68.9651E-03
            3822             461     71.6309E-03     68.9651E-03
            3824             462     67.2285E-03     63.4867E-03
            3823             462     67.2285E-03     63.4867E-03
            3825             463     59.6947E-03     61.6291E-03
            3824             463     59.6947E-03     61.6291E-03
            3825             464     58.0788E-03     56.7038E-03
            3826             464     58.0788E-03     56.7038E-03
            3827             465     54.6358E-03     54.5826E-03
            3826             465     54.6358E-03     54.5826E-03
            3828             466     51.8165E-03     51.5381E-03
            3827             466     51.8165E-03     51.5381E-03
            3829             467     48.9971E-03     48.2768E-03
            3828             467     48.9971E-03     48.2768E-03
            3829             468     45.3533E-03     45.9711E-03
            3830             468     45.3533E-03     45.9711E-03
            3830             469     43.7592E-03     41.6300E-03
            3831             469     43.7592E-03     41.6300E-03
            3832             470     40.6100E-03     38.7168E-03
            3831             470     40.6100E-03     38.7168E-03
            3833             471     41.8429E-03     46.9741E-03
            3832             471     41.8429E-03     46.9741E-03
            3834             472     49.1361E-03     47.5369E-03
            3833             472     49.1361E-03     47.5369E-03
            3834             473     44.6558E-03     42.1981E-03
            3835             473     44.6558E-03     42.1981E-03
            3836             474     37.9409E-03     39.4410E-03
            3835             474     37.9409E-03     39.4410E-03
            3836             475     35.5977E-03     34.6529E-03
            3837             475     35.5977E-03     34.6529E-03
            3837             476     31.9057E-03     31.9482E-03
            3838             476     31.9057E-03     31.9482E-03
            3838             477     28.7472E-03     28.5327E-03
            3839             477     28.7472E-03     28.5327E-03
            3839             478     25.4234E-03     25.2007E-03
            3840             478     25.4234E-03     25.2007E-03
            3841             479     21.8489E-03     21.8742E-03
            3840             479     21.8489E-03     21.8742E-03
            3842             480     18.2229E-03     17.7367E-03
            3841             480     18.2229E-03     17.7367E-03
            3843             481     14.0556E-03     13.3758E-03
            3842             481     14.0556E-03     13.3758E-03
            3844             482     17.0011E-03     19.1537E-03
            3843             482     17.0011E-03     19.1537E-03
            3845             483     22.5974E-03     22.2797E-03
            3844             483     22.5974E-03     22.2797E-03
            3846             484     18.2466E-03     17.2122E-03
            3845             484     18.2466E-03     17.2122E-03
            3846             485     12.8279E-03     13.7721E-03
            3847             485     12.8279E-03     13.7721E-03
            3848             486     10.1970E-03     9.84885E-03
            3847             486     10.1970E-03     9.84885E-03
            3849             487     7.94578E-03     8.08088E-03
            3848             487     7.94578E-03     8.08088E-03
            3850             488     7.24395E-03     8.33524E-03
            3849             488     7.24395E-03     8.33524E-03
            2354             514     58.1985E-03     61.4767E-03
            3501             514     58.1985E-03     61.4767E-03
            2348             514     58.1985E-03     61.4767E-03
            3551             514     58.1985E-03     61.4767E-03
            3601             515     71.4901E-03     77.1025E-03
            3551             515     71.4901E-03     77.1025E-03
            2354             515     71.4901E-03     77.1025E-03
            2360             515     71.4901E-03     77.1025E-03
            2366             516     85.0795E-03     93.0406E-03
            3601             516     85.0795E-03     93.0406E-03
            2360             516     85.0795E-03     93.0406E-03
            3651             516     85.0795E-03     93.0406E-03
            3701             517     95.8798E-03     107.131E-03
            3651             517     95.8798E-03     107.131E-03
            2366             517     95.8798E-03     107.131E-03
            2372             517     95.8798E-03     107.131E-03
            2372             518     103.240E-03     116.551E-03
            3701             518     103.240E-03     116.551E-03
            3751             518     103.240E-03     116.551E-03
            2378             518     103.240E-03     116.551E-03
            3751             519     109.428E-03     119.575E-03
            2378             519     109.428E-03     119.575E-03
            2384             519     109.428E-03     119.575E-03
            3801             519     109.428E-03     119.575E-03
            2384             520     165.308E-03     166.270E-03
            2383             520     165.308E-03     166.270E-03
            2383             521     207.466E-03     201.996E-03
            2382             521     207.466E-03     201.996E-03
            2381             522     197.877E-03     195.140E-03
            2382             522     197.877E-03     195.140E-03
            2380             523     184.687E-03     185.753E-03
            2381             523     184.687E-03     185.753E-03
            2380             524     172.685E-03     179.111E-03
            2379             524     172.685E-03     179.111E-03
            2379             525     118.683E-03     134.768E-03
            5324             525     118.683E-03     134.768E-03
            2373             525     118.683E-03     134.768E-03
            5318             525     118.683E-03     134.768E-03
            5312             526     115.709E-03     127.848E-03
            2367             526     115.709E-03     127.848E-03
            2373             526     115.709E-03     127.848E-03
            5318             526     115.709E-03     127.848E-03
            5306             527     108.277E-03     113.538E-03
            5312             527     108.277E-03     113.538E-03
            2361             527     108.277E-03     113.538E-03
            2367             527     108.277E-03     113.538E-03
            2361             528     94.2287E-03     95.8995E-03
            5306             528     94.2287E-03     95.8995E-03
            5300             528     94.2287E-03     95.8995E-03
            2355             528     94.2287E-03     95.8995E-03
            2349             529     77.8500E-03     77.7254E-03
            5294             529     77.8500E-03     77.7254E-03
            2355             529     77.8500E-03     77.7254E-03
            5300             529     77.8500E-03     77.7254E-03
            5288             530     64.2860E-03     63.5863E-03
            2349             530     64.2860E-03     63.5863E-03
            2343             530     64.2860E-03     63.5863E-03
            5294             530     64.2860E-03     63.5863E-03
            5320             625     81.7133E-03     77.1347E-03
            5319             625     81.7133E-03     77.1347E-03
            5321             626     81.2739E-03     75.6191E-03
            5320             626     81.2739E-03     75.6191E-03
            5321             627     76.7292E-03     80.7881E-03
            5322             627     76.7292E-03     80.7881E-03
            5323             628     84.1687E-03     77.8208E-03
            5322             628     84.1687E-03     77.8208E-03
            5324             629     84.6365E-03     83.2684E-03
            5323             629     84.6365E-03     83.2684E-03
            5283             630     18.8631E-03     20.4621E-03
            5289             630     18.8631E-03     20.4621E-03
            4106             630     18.8631E-03     20.4621E-03
            4146             630     18.8631E-03     20.4621E-03
            4186             631     28.1073E-03     30.7562E-03
            4146             631     28.1073E-03     30.7562E-03
            5289             631     28.1073E-03     30.7562E-03
            5295             631     28.1073E-03     30.7562E-03
            4186             632     39.8488E-03     44.2353E-03
            5295             632     39.8488E-03     44.2353E-03
            4226             632     39.8488E-03     44.2353E-03
            5301             632     39.8488E-03     44.2353E-03
            4226             633     50.7517E-03     58.2783E-03
            5307             633     50.7517E-03     58.2783E-03
            5301             633     50.7517E-03     58.2783E-03
            4266             633     50.7517E-03     58.2783E-03
            5313             634     60.8871E-03     70.1110E-03
            4266             634     60.8871E-03     70.1110E-03
            4306             634     60.8871E-03     70.1110E-03
            5307             634     60.8871E-03     70.1110E-03
            5319             635     69.5188E-03     75.6196E-03
            4306             635     69.5188E-03     75.6196E-03
            5313             635     69.5188E-03     75.6196E-03
            4346             635     69.5188E-03     75.6196E-03
            4346             636     73.8177E-03     80.3287E-03
            4345             636     73.8177E-03     80.3287E-03
            4345             637     83.1487E-03     80.4898E-03
            4344             637     83.1487E-03     80.4898E-03
            4344             638     79.4836E-03     74.8252E-03
            4343             638     79.4836E-03     74.8252E-03
            4342             639     71.6759E-03     73.9000E-03
            4343             639     71.6759E-03     73.9000E-03
            4341             640     70.4383E-03     68.9201E-03
            4342             640     70.4383E-03     68.9201E-03
            4341             641     67.3333E-03     67.1187E-03
            4340             641     67.3333E-03     67.1187E-03
            4339             642     64.8859E-03     64.4140E-03
            4340             642     64.8859E-03     64.4140E-03
            4338             643     62.6725E-03     61.4196E-03
            4339             643     62.6725E-03     61.4196E-03
            4337             644     59.4163E-03     60.0867E-03
            4338             644     59.4163E-03     60.0867E-03
            4336             645     60.1856E-03     56.5995E-03
            4337             645     60.1856E-03     56.5995E-03
            4335             646     59.3431E-03     55.6480E-03
            4336             646     59.3431E-03     55.6480E-03
            4335             647     58.4732E-03     65.3364E-03
            4334             647     58.4732E-03     65.3364E-03
            4333             648     65.2926E-03     63.5333E-03
            4334             648     65.2926E-03     63.5333E-03
            4332             649     61.5394E-03     57.9543E-03
            4333             649     61.5394E-03     57.9543E-03
            4332             650     54.3220E-03     56.2711E-03
            4331             650     54.3220E-03     56.2711E-03
            4330             651     52.4747E-03     51.3451E-03
            4331             651     52.4747E-03     51.3451E-03
            4329             652     49.1012E-03     49.0095E-03
            4330             652     49.1012E-03     49.0095E-03
            4328             653     46.2863E-03     45.9201E-03
            4329             653     46.2863E-03     45.9201E-03
            4328             654     43.4575E-03     43.0812E-03
            4327             654     43.4575E-03     43.0812E-03
            4326             655     40.7940E-03     39.9245E-03
            4327             655     40.7940E-03     39.9245E-03
            4326             656     37.5353E-03     37.6548E-03
            4325             656     37.5353E-03     37.6548E-03
            4324             657     36.5617E-03     34.2717E-03
            4325             657     36.5617E-03     34.2717E-03
            4324             658     35.1121E-03     32.3771E-03
            4323             658     35.1121E-03     32.3771E-03
            4323             659     36.1269E-03     40.2637E-03
            4322             659     36.1269E-03     40.2637E-03
            4321             660     41.4135E-03     40.7428E-03
            4322             660     41.4135E-03     40.7428E-03
            4320             661     37.4439E-03     35.2264E-03
            4321             661     37.4439E-03     35.2264E-03
            4320             662     31.0681E-03     32.5295E-03
            4319             662     31.0681E-03     32.5295E-03
            4319             663     28.3630E-03     27.6858E-03
            4318             663     28.3630E-03     27.6858E-03
            4318             664     24.6536E-03     24.7034E-03
            4317             664     24.6536E-03     24.7034E-03
            4317             665     21.4061E-03     21.1316E-03
            4316             665     21.4061E-03     21.1316E-03
            4316             666     18.0477E-03     17.7979E-03
            4315             666     18.0477E-03     17.7979E-03
            4315             667     14.8698E-03     14.3450E-03
            4314             667     14.8698E-03     14.3450E-03
            4314             668     12.1887E-03     11.3117E-03
            4313             668     12.1887E-03     11.3117E-03
            4313             669     10.8701E-03     9.56563E-03
            4312             669     10.8701E-03     9.56563E-03
            4312             670     12.6729E-03     14.2910E-03
            4311             670     12.6729E-03     14.2910E-03
            4310             671     13.8561E-03     14.3737E-03
            4311             671     13.8561E-03     14.3737E-03
            4309             672     9.08361E-03     7.36663E-03
            4310             672     9.08361E-03     7.36663E-03
            4308             673     3.72700E-03     3.81520E-03
            4309             673     3.72700E-03     3.81520E-03
            4308             674     4.24068E-03     5.62479E-03
            4307             674     4.24068E-03     5.62479E-03
            6604             765     1.05207E-03     1.04535E-03
            6603             765     1.05207E-03     1.04535E-03
            6605             766     784.470E-06     739.948E-06
            6604             766     784.470E-06     739.948E-06
            6606             767     469.348E-06     515.547E-06
            6605             767     469.348E-06     515.547E-06
            6607             768     331.658E-06     300.620E-06
            6606             768     331.658E-06     300.620E-06
            6608             769     265.262E-06     351.258E-06
            6607             769     265.262E-06     351.258E-06
            6578             825     965.966E-06     958.406E-06
            6572             825     965.966E-06     958.406E-06
            6584             826     879.063E-06     870.398E-06
            6578             826     879.063E-06     870.398E-06
            6584             827     744.632E-06     732.364E-06
            6590             827     744.632E-06     732.364E-06
            6596             828     541.756E-06     541.457E-06
            6590             828     541.756E-06     541.457E-06
            6596             829     321.215E-06     338.721E-06
            6602             829     321.215E-06     338.721E-06
            6608             830     255.524E-06     342.715E-06
            6602             830     255.524E-06     342.715E-06
               2             831     942.261E-06     936.124E-06
               5             831     942.261E-06     936.124E-06
               6             831     942.261E-06     936.124E-06
               1             831     942.261E-06     936.124E-06
               3             832     954.547E-06     940.972E-06
               6             832     954.547E-06     940.972E-06
               7             832     954.547E-06     940.972E-06
               2             832     954.547E-06     940.972E-06
               8             833     948.820E-06     932.450E-06
               3             833     948.820E-06     932.450E-06
               7             833     948.820E-06     932.450E-06
               4             833     948.820E-06     932.450E-06
               5             834     863.268E-06     858.550E-06
              10             834     863.268E-06     858.550E-06
               6             834     863.268E-06     858.550E-06
               9             834     863.268E-06     858.550E-06
              10             835     881.947E-06     866.775E-06
               6             835     881.947E-06     866.775E-06
               7             835     881.947E-06     866.775E-06
              11             835     881.947E-06     866.775E-06
               8             836     875.229E-06     865.219E-06
              11             836     875.229E-06     865.219E-06
               7             836     875.229E-06     865.219E-06
              12             836     875.229E-06     865.219E-06
               9             837     737.197E-06     735.070E-06
              13             837     737.197E-06     735.070E-06
              10             837     737.197E-06     735.070E-06
              14             837     737.197E-06     735.070E-06
              11             838     765.812E-06     744.024E-06
              14             838     765.812E-06     744.024E-06
              10             838     765.812E-06     744.024E-06
              15             838     765.812E-06     744.024E-06
              16             839     766.296E-06     761.861E-06
              15             839     766.296E-06     761.861E-06
              12             839     766.296E-06     761.861E-06
              11             839     766.296E-06     761.861E-06
              13             840     566.707E-06     578.147E-06
              17             840     566.707E-06     578.147E-06
              14             840     566.707E-06     578.147E-06
              18             840     566.707E-06     578.147E-06
              15             841     615.380E-06     594.206E-06
              18             841     615.380E-06     594.206E-06
              14             841     615.380E-06     594.206E-06
              19             841     615.380E-06     594.206E-06
              19             842     622.556E-06     628.048E-06
              20             842     622.556E-06     628.048E-06
              15             842     622.556E-06     628.048E-06
              16             842     622.556E-06     628.048E-06
              17             843     361.985E-06     389.345E-06
              21             843     361.985E-06     389.345E-06
              18             843     361.985E-06     389.345E-06
              22             843     361.985E-06     389.345E-06
              19             844     454.108E-06     413.190E-06
              22             844     454.108E-06     413.190E-06
              18             844     454.108E-06     413.190E-06
              23             844     454.108E-06     413.190E-06
              23             845     474.731E-06     486.953E-06
              24             845     474.731E-06     486.953E-06
              19             845     474.731E-06     486.953E-06
              20             845     474.731E-06     486.953E-06
              25             846     245.695E-06     324.588E-06
              21             846     245.695E-06     324.588E-06
              22             846     245.695E-06     324.588E-06
              26             846     245.695E-06     324.588E-06
              27             847     400.847E-06     341.408E-06
              22             847     400.847E-06     341.408E-06
              26             847     400.847E-06     341.408E-06
              23             847     400.847E-06     341.408E-06
              23             848     520.211E-06     534.714E-06
              27             848     520.211E-06     534.714E-06
              28             848     520.211E-06     534.714E-06
              24             848     520.211E-06     534.714E-06
              30             849     20.0801E-03     19.8977E-03
              80             849     20.0801E-03     19.8977E-03
              79             849     20.0801E-03     19.8977E-03
              29             849     20.0801E-03     19.8977E-03
              30             850     20.1474E-03     20.0241E-03
              81             850     20.1474E-03     20.0241E-03
              80             850     20.1474E-03     20.0241E-03
              31             850     20.1474E-03     20.0241E-03
              32             851     20.0955E-03     20.0026E-03
              81             851     20.0955E-03     20.0026E-03
              82             851     20.0955E-03     20.0026E-03
              31             851     20.0955E-03     20.0026E-03
              83             852     20.0220E-03     20.0459E-03
              82             852     20.0220E-03     20.0459E-03
              33             852     20.0220E-03     20.0459E-03
              32             852     20.0220E-03     20.0459E-03
              33             853     20.1824E-03     20.1128E-03
              34             853     20.1824E-03     20.1128E-03
              84             853     20.1824E-03     20.1128E-03
              83             853     20.1824E-03     20.1128E-03
              34             854     20.1398E-03     19.7540E-03
              35             854     20.1398E-03     19.7540E-03
              85             854     20.1398E-03     19.7540E-03
              84             854     20.1398E-03     19.7540E-03
              35             855     19.1361E-03     18.9667E-03
              86             855     19.1361E-03     18.9667E-03
              36             855     19.1361E-03     18.9667E-03
              85             855     19.1361E-03     18.9667E-03
              36             856     18.4644E-03     18.3221E-03
              87             856     18.4644E-03     18.3221E-03
              37             856     18.4644E-03     18.3221E-03
              86             856     18.4644E-03     18.3221E-03
              37             857     18.5774E-03     18.2083E-03
              88             857     18.5774E-03     18.2083E-03
              38             857     18.5774E-03     18.2083E-03
              87             857     18.5774E-03     18.2083E-03
              38             858     18.6223E-03     18.3300E-03
              88             858     18.6223E-03     18.3300E-03
              39             858     18.6223E-03     18.3300E-03
              89             858     18.6223E-03     18.3300E-03
              90             859     18.5857E-03     18.3971E-03
              39             859     18.5857E-03     18.3971E-03
              89             859     18.5857E-03     18.3971E-03
              40             859     18.5857E-03     18.3971E-03
              90             860     18.5716E-03     18.5182E-03
              41             860     18.5716E-03     18.5182E-03
              40             860     18.5716E-03     18.5182E-03
              91             860     18.5716E-03     18.5182E-03
              92             861     18.6104E-03     18.6723E-03
              41             861     18.6104E-03     18.6723E-03
              91             861     18.6104E-03     18.6723E-03
              42             861     18.6104E-03     18.6723E-03
              42             862     18.6590E-03     18.7039E-03
              93             862     18.6590E-03     18.7039E-03
              92             862     18.6590E-03     18.7039E-03
              43             862     18.6590E-03     18.7039E-03
              43             863     18.4897E-03     18.9169E-03
              44             863     18.4897E-03     18.9169E-03
              94             863     18.4897E-03     18.9169E-03
              93             863     18.4897E-03     18.9169E-03
              95             864     18.9267E-03     19.0310E-03
              94             864     18.9267E-03     19.0310E-03
              44             864     18.9267E-03     19.0310E-03
              45             864     18.9267E-03     19.0310E-03
              96             865     18.9438E-03     18.2462E-03
              46             865     18.9438E-03     18.2462E-03
              45             865     18.9438E-03     18.2462E-03
              95             865     18.9438E-03     18.2462E-03
              47             866     17.6154E-03     17.5520E-03
              46             866     17.6154E-03     17.5520E-03
              97             866     17.6154E-03     17.5520E-03
              96             866     17.6154E-03     17.5520E-03
              97             867     16.9001E-03     16.9557E-03
              47             867     16.9001E-03     16.9557E-03
              98             867     16.9001E-03     16.9557E-03
              48             867     16.9001E-03     16.9557E-03
              48             868     17.1255E-03     16.5187E-03
              98             868     17.1255E-03     16.5187E-03
              99             868     17.1255E-03     16.5187E-03
              49             868     17.1255E-03     16.5187E-03
              50             869     17.3185E-03     16.8200E-03
             100             869     17.3185E-03     16.8200E-03
              99             869     17.3185E-03     16.8200E-03
              49             869     17.3185E-03     16.8200E-03
             100             870     17.2498E-03     16.9826E-03
              50             870     17.2498E-03     16.9826E-03
             101             870     17.2498E-03     16.9826E-03
              51             870     17.2498E-03     16.9826E-03
             101             871     17.2635E-03     17.1727E-03
             102             871     17.2635E-03     17.1727E-03
              51             871     17.2635E-03     17.1727E-03
              52             871     17.2635E-03     17.1727E-03
              52             872     17.3220E-03     17.4322E-03
             102             872     17.3220E-03     17.4322E-03
             103             872     17.3220E-03     17.4322E-03
              53             872     17.3220E-03     17.4322E-03
             104             873     17.3571E-03     17.4942E-03
              53             873     17.3571E-03     17.4942E-03
              54             873     17.3571E-03     17.4942E-03
             103             873     17.3571E-03     17.4942E-03
              55             874     17.0709E-03     17.8082E-03
             105             874     17.0709E-03     17.8082E-03
             104             874     17.0709E-03     17.8082E-03
              54             874     17.0709E-03     17.8082E-03
              56             875     17.7019E-03     17.9231E-03
             105             875     17.7019E-03     17.9231E-03
              55             875     17.7019E-03     17.9231E-03
             106             875     17.7019E-03     17.9231E-03
              57             876     17.7074E-03     16.8357E-03
             107             876     17.7074E-03     16.8357E-03
             106             876     17.7074E-03     16.8357E-03
              56             876     17.7074E-03     16.8357E-03
             107             877     16.1695E-03     16.3568E-03
             108             877     16.1695E-03     16.3568E-03
              57             877     16.1695E-03     16.3568E-03
              58             877     16.1695E-03     16.3568E-03
              59             878     15.6756E-03     15.8474E-03
             109             878     15.6756E-03     15.8474E-03
             108             878     15.6756E-03     15.8474E-03
              58             878     15.6756E-03     15.8474E-03
              60             879     16.0222E-03     15.1932E-03
              59             879     16.0222E-03     15.1932E-03
             110             879     16.0222E-03     15.1932E-03
             109             879     16.0222E-03     15.1932E-03
             111             880     16.2847E-03     15.6792E-03
             110             880     16.2847E-03     15.6792E-03
              60             880     16.2847E-03     15.6792E-03
              61             880     16.2847E-03     15.6792E-03
              61             881     16.2213E-03     15.8938E-03
             112             881     16.2213E-03     15.8938E-03
             111             881     16.2213E-03     15.8938E-03
              62             881     16.2213E-03     15.8938E-03
              62             882     16.2634E-03     16.1436E-03
             112             882     16.2634E-03     16.1436E-03
             113             882     16.2634E-03     16.1436E-03
              63             882     16.2634E-03     16.1436E-03
              63             883     16.3418E-03     16.4813E-03
             113             883     16.3418E-03     16.4813E-03
              64             883     16.3418E-03     16.4813E-03
             114             883     16.3418E-03     16.4813E-03
              64             884     16.3704E-03     16.5623E-03
              65             884     16.3704E-03     16.5623E-03
             114             884     16.3704E-03     16.5623E-03
             115             884     16.3704E-03     16.5623E-03
              66             885     15.9879E-03     16.9798E-03
             116             885     15.9879E-03     16.9798E-03
             115             885     15.9879E-03     16.9798E-03
              65             885     15.9879E-03     16.9798E-03
             117             886     16.8064E-03     17.0579E-03
              66             886     16.8064E-03     17.0579E-03
              67             886     16.8064E-03     17.0579E-03
             116             886     16.8064E-03     17.0579E-03
              67             887     16.7703E-03     15.7825E-03
             117             887     16.7703E-03     15.7825E-03
             118             887     16.7703E-03     15.7825E-03
              68             887     16.7703E-03     15.7825E-03
             118             888     15.0264E-03     15.5522E-03
              68             888     15.0264E-03     15.5522E-03
              69             888     15.0264E-03     15.5522E-03
             119             888     15.0264E-03     15.5522E-03
             119             889     14.8230E-03     15.1055E-03
             120             889     14.8230E-03     15.1055E-03
              69             889     14.8230E-03     15.1055E-03
              70             889     14.8230E-03     15.1055E-03
             120             890     15.3208E-03     14.3895E-03
              70             890     15.3208E-03     14.3895E-03
             121             890     15.3208E-03     14.3895E-03
              71             890     15.3208E-03     14.3895E-03
              72             891     15.4892E-03     14.9987E-03
              71             891     15.4892E-03     14.9987E-03
             121             891     15.4892E-03     14.9987E-03
             122             891     15.4892E-03     14.9987E-03
             123             892     15.4233E-03     15.2758E-03
              73             892     15.4233E-03     15.2758E-03
              72             892     15.4233E-03     15.2758E-03
             122             892     15.4233E-03     15.2758E-03
              74             893     15.5251E-03     15.5290E-03
             123             893     15.5251E-03     15.5290E-03
              73             893     15.5251E-03     15.5290E-03
             124             893     15.5251E-03     15.5290E-03
              75             894     15.5783E-03     15.6932E-03
             125             894     15.5783E-03     15.6932E-03
             124             894     15.5783E-03     15.6932E-03
              74             894     15.5783E-03     15.6932E-03
              75             895     15.0640E-03     16.1899E-03
             126             895     15.0640E-03     16.1899E-03
             125             895     15.0640E-03     16.1899E-03
              76             895     15.0640E-03     16.1899E-03
             127             896     16.0397E-03     16.2166E-03
              76             896     16.0397E-03     16.2166E-03
             126             896     16.0397E-03     16.2166E-03
              77             896     16.0397E-03     16.2166E-03
              78             897     15.8996E-03     14.9019E-03
             127             897     15.8996E-03     14.9019E-03
             128             897     15.8996E-03     14.9019E-03
              77             897     15.8996E-03     14.9019E-03
              79             898     19.7258E-03     19.5179E-03
              80             898     19.7258E-03     19.5179E-03
             130             898     19.7258E-03     19.5179E-03
             129             898     19.7258E-03     19.5179E-03
              81             899     19.8219E-03     19.7074E-03
              80             899     19.8219E-03     19.7074E-03
             130             899     19.8219E-03     19.7074E-03
             131             899     19.8219E-03     19.7074E-03
              82             900     19.7838E-03     19.7114E-03
             131             900     19.7838E-03     19.7114E-03
             132             900     19.7838E-03     19.7114E-03
              81             900     19.7838E-03     19.7114E-03
              83             901     19.7911E-03     19.8874E-03
             132             901     19.7911E-03     19.8874E-03
             133             901     19.7911E-03     19.8874E-03
              82             901     19.7911E-03     19.8874E-03
             134             902     20.1427E-03     20.0481E-03
              83             902     20.1427E-03     20.0481E-03
             133             902     20.1427E-03     20.0481E-03
              84             902     20.1427E-03     20.0481E-03
              84             903     20.1160E-03     19.7220E-03
             134             903     20.1160E-03     19.7220E-03
              85             903     20.1160E-03     19.7220E-03
             135             903     20.1160E-03     19.7220E-03
             135             904     18.9415E-03     18.9310E-03
             136             904     18.9415E-03     18.9310E-03
              85             904     18.9415E-03     18.9310E-03
              86             904     18.9415E-03     18.9310E-03
              86             905     18.2792E-03     18.2838E-03
             137             905     18.2792E-03     18.2838E-03
             136             905     18.2792E-03     18.2838E-03
              87             905     18.2792E-03     18.2838E-03
             138             906     18.5202E-03     18.4260E-03
              88             906     18.5202E-03     18.4260E-03
             137             906     18.5202E-03     18.4260E-03
              87             906     18.5202E-03     18.4260E-03
              89             907     18.7065E-03     18.8171E-03
             139             907     18.7065E-03     18.8171E-03
              88             907     18.7065E-03     18.8171E-03
             138             907     18.7065E-03     18.8171E-03
             139             908     18.9761E-03     19.1018E-03
             140             908     18.9761E-03     19.1018E-03
              90             908     18.9761E-03     19.1018E-03
              89             908     18.9761E-03     19.1018E-03
             141             909     19.2624E-03     19.3958E-03
              90             909     19.2624E-03     19.3958E-03
             140             909     19.2624E-03     19.3958E-03
              91             909     19.2624E-03     19.3958E-03
              91             910     19.6747E-03     19.6510E-03
             142             910     19.6747E-03     19.6510E-03
             141             910     19.6747E-03     19.6510E-03
              92             910     19.6747E-03     19.6510E-03
              93             911     20.0421E-03     19.7527E-03
             143             911     20.0421E-03     19.7527E-03
              92             911     20.0421E-03     19.7527E-03
             142             911     20.0421E-03     19.7527E-03
             144             912     20.0813E-03     20.3014E-03
              93             912     20.0813E-03     20.3014E-03
              94             912     20.0813E-03     20.3014E-03
             143             912     20.0813E-03     20.3014E-03
             144             913     21.0219E-03     20.4397E-03
             145             913     21.0219E-03     20.4397E-03
              94             913     21.0219E-03     20.4397E-03
              95             913     21.0219E-03     20.4397E-03
              96             914     20.8155E-03     19.7905E-03
              95             914     20.8155E-03     19.7905E-03
             145             914     20.8155E-03     19.7905E-03
             146             914     20.8155E-03     19.7905E-03
             146             915     18.8716E-03     19.4627E-03
             147             915     18.8716E-03     19.4627E-03
              97             915     18.8716E-03     19.4627E-03
              96             915     18.8716E-03     19.4627E-03
              98             916     18.6789E-03     18.8078E-03
             148             916     18.6789E-03     18.8078E-03
             147             916     18.6789E-03     18.8078E-03
              97             916     18.6789E-03     18.8078E-03
              98             917     19.2751E-03     18.9102E-03
              99             917     19.2751E-03     18.9102E-03
             149             917     19.2751E-03     18.9102E-03
             148             917     19.2751E-03     18.9102E-03
              99             918     19.4437E-03     19.7312E-03
             150             918     19.4437E-03     19.7312E-03
             100             918     19.4437E-03     19.7312E-03
             149             918     19.4437E-03     19.7312E-03
             101             919     19.9022E-03     19.9931E-03
             100             919     19.9022E-03     19.9931E-03
             151             919     19.9022E-03     19.9931E-03
             150             919     19.9022E-03     19.9931E-03
             151             920     20.3109E-03     20.3634E-03
             152             920     20.3109E-03     20.3634E-03
             102             920     20.3109E-03     20.3634E-03
             101             920     20.3109E-03     20.3634E-03
             153             921     20.8317E-03     20.6874E-03
             102             921     20.8317E-03     20.6874E-03
             103             921     20.8317E-03     20.6874E-03
             152             921     20.8317E-03     20.6874E-03
             153             922     21.2449E-03     20.7754E-03
             154             922     21.2449E-03     20.7754E-03
             103             922     21.2449E-03     20.7754E-03
             104             922     21.2449E-03     20.7754E-03
             105             923     21.1063E-03     21.5400E-03
             155             923     21.1063E-03     21.5400E-03
             104             923     21.1063E-03     21.5400E-03
             154             923     21.1063E-03     21.5400E-03
             155             924     22.3285E-03     21.4838E-03
             106             924     22.3285E-03     21.4838E-03
             105             924     22.3285E-03     21.4838E-03
             156             924     22.3285E-03     21.4838E-03
             106             925     21.8223E-03     20.4227E-03
             157             925     21.8223E-03     20.4227E-03
             107             925     21.8223E-03     20.4227E-03
             156             925     21.8223E-03     20.4227E-03
             107             926     19.2784E-03     20.5248E-03
             108             926     19.2784E-03     20.5248E-03
             157             926     19.2784E-03     20.5248E-03
             158             926     19.2784E-03     20.5248E-03
             159             927     19.7541E-03     19.8580E-03
             158             927     19.7541E-03     19.8580E-03
             108             927     19.7541E-03     19.8580E-03
             109             927     19.7541E-03     19.8580E-03
             110             928     20.6732E-03     19.9322E-03
             160             928     20.6732E-03     19.9322E-03
             109             928     20.6732E-03     19.9322E-03
             159             928     20.6732E-03     19.9322E-03
             111             929     20.6242E-03     21.0688E-03
             160             929     20.6242E-03     21.0688E-03
             161             929     20.6242E-03     21.0688E-03
             110             929     20.6242E-03     21.0688E-03
             162             930     21.1786E-03     21.1759E-03
             111             930     21.1786E-03     21.1759E-03
             161             930     21.1786E-03     21.1759E-03
             112             930     21.1786E-03     21.1759E-03
             163             931     21.5901E-03     21.5408E-03
             112             931     21.5901E-03     21.5408E-03
             162             931     21.5901E-03     21.5408E-03
             113             931     21.5901E-03     21.5408E-03
             114             932     22.0766E-03     21.8406E-03
             113             932     22.0766E-03     21.8406E-03
             163             932     22.0766E-03     21.8406E-03
             164             932     22.0766E-03     21.8406E-03
             114             933     22.4190E-03     21.8347E-03
             115             933     22.4190E-03     21.8347E-03
             165             933     22.4190E-03     21.8347E-03
             164             933     22.4190E-03     21.8347E-03
             116             934     22.0460E-03     22.6579E-03
             165             934     22.0460E-03     22.6579E-03
             115             934     22.0460E-03     22.6579E-03
             166             934     22.0460E-03     22.6579E-03
             167             935     23.3652E-03     22.3437E-03
             116             935     23.3652E-03     22.3437E-03
             166             935     23.3652E-03     22.3437E-03
             117             935     23.3652E-03     22.3437E-03
             167             936     22.5612E-03     20.8905E-03
             118             936     22.5612E-03     20.8905E-03
             117             936     22.5612E-03     20.8905E-03
             168             936     22.5612E-03     20.8905E-03
             118             937     19.5775E-03     21.2823E-03
             119             937     19.5775E-03     21.2823E-03
             169             937     19.5775E-03     21.2823E-03
             168             937     19.5775E-03     21.2823E-03
             170             938     20.6037E-03     20.6296E-03
             120             938     20.6037E-03     20.6296E-03
             119             938     20.6037E-03     20.6296E-03
             169             938     20.6037E-03     20.6296E-03
             121             939     21.7858E-03     20.7103E-03
             170             939     21.7858E-03     20.7103E-03
             171             939     21.7858E-03     20.7103E-03
             120             939     21.7858E-03     20.7103E-03
             171             940     21.5563E-03     22.0340E-03
             172             940     21.5563E-03     22.0340E-03
             122             940     21.5563E-03     22.0340E-03
             121             940     21.5563E-03     22.0340E-03
             123             941     22.0258E-03     22.0768E-03
             172             941     22.0258E-03     22.0768E-03
             173             941     22.0258E-03     22.0768E-03
             122             941     22.0258E-03     22.0768E-03
             124             942     22.5819E-03     22.3513E-03
             173             942     22.5819E-03     22.3513E-03
             174             942     22.5819E-03     22.3513E-03
             123             942     22.5819E-03     22.3513E-03
             174             943     22.7190E-03     22.3809E-03
             125             943     22.7190E-03     22.3809E-03
             175             943     22.7190E-03     22.3809E-03
             124             943     22.7190E-03     22.3809E-03
             125             944     22.1703E-03     23.0616E-03
             176             944     22.1703E-03     23.0616E-03
             126             944     22.1703E-03     23.0616E-03
             175             944     22.1703E-03     23.0616E-03
             176             945     23.3967E-03     22.4630E-03
             126             945     23.3967E-03     22.4630E-03
             127             945     23.3967E-03     22.4630E-03
             177             945     23.3967E-03     22.4630E-03
             127             946     22.3629E-03     20.6149E-03
             128             946     22.3629E-03     20.6149E-03
             177             946     22.3629E-03     20.6149E-03
             178             946     22.3629E-03     20.6149E-03
             129             947     18.2530E-03     18.1166E-03
             180             947     18.2530E-03     18.1166E-03
             130             947     18.2530E-03     18.1166E-03
             179             947     18.2530E-03     18.1166E-03
             131             948     18.3514E-03     18.3894E-03
             181             948     18.3514E-03     18.3894E-03
             130             948     18.3514E-03     18.3894E-03
             180             948     18.3514E-03     18.3894E-03
             132             949     18.4535E-03     18.5737E-03
             182             949     18.4535E-03     18.5737E-03
             131             949     18.4535E-03     18.5737E-03
             181             949     18.4535E-03     18.5737E-03
             182             950     18.6543E-03     18.9181E-03
             133             950     18.6543E-03     18.9181E-03
             183             950     18.6543E-03     18.9181E-03
             132             950     18.6543E-03     18.9181E-03
             133             951     19.5126E-03     19.0575E-03
             183             951     19.5126E-03     19.0575E-03
             184             951     19.5126E-03     19.0575E-03
             134             951     19.5126E-03     19.0575E-03
             184             952     19.6427E-03     19.0835E-03
             185             952     19.6427E-03     19.0835E-03
             135             952     19.6427E-03     19.0835E-03
             134             952     19.6427E-03     19.0835E-03
             136             953     18.2268E-03     18.7073E-03
             135             953     18.2268E-03     18.7073E-03
             186             953     18.2268E-03     18.7073E-03
             185             953     18.2268E-03     18.7073E-03
             136             954     17.8230E-03     18.2046E-03
             137             954     17.8230E-03     18.2046E-03
             187             954     17.8230E-03     18.2046E-03
             186             954     17.8230E-03     18.2046E-03
             138             955     18.3327E-03     18.7615E-03
             188             955     18.3327E-03     18.7615E-03
             187             955     18.3327E-03     18.7615E-03
             137             955     18.3327E-03     18.7615E-03
             189             956     18.8449E-03     19.4726E-03
             139             956     18.8449E-03     19.4726E-03
             138             956     18.8449E-03     19.4726E-03
             188             956     18.8449E-03     19.4726E-03
             140             957     19.5737E-03     19.8411E-03
             190             957     19.5737E-03     19.8411E-03
             139             957     19.5737E-03     19.8411E-03
             189             957     19.5737E-03     19.8411E-03
             140             958     20.2633E-03     20.3709E-03
             190             958     20.2633E-03     20.3709E-03
             141             958     20.2633E-03     20.3709E-03
             191             958     20.2633E-03     20.3709E-03
             142             959     21.1339E-03     20.9078E-03
             141             959     21.1339E-03     20.9078E-03
             192             959     21.1339E-03     20.9078E-03
             191             959     21.1339E-03     20.9078E-03
             143             960     21.9692E-03     21.3649E-03
             193             960     21.9692E-03     21.3649E-03
             192             960     21.9692E-03     21.3649E-03
             142             960     21.9692E-03     21.3649E-03
             144             961     22.4295E-03     22.7588E-03
             143             961     22.4295E-03     22.7588E-03
             194             961     22.4295E-03     22.7588E-03
             193             961     22.4295E-03     22.7588E-03
             145             962     24.8611E-03     23.0970E-03
             194             962     24.8611E-03     23.0970E-03
             195             962     24.8611E-03     23.0970E-03
             144             962     24.8611E-03     23.0970E-03
             146             963     24.6671E-03     23.4188E-03
             196             963     24.6671E-03     23.4188E-03
             145             963     24.6671E-03     23.4188E-03
             195             963     24.6671E-03     23.4188E-03
             196             964     21.5926E-03     24.2385E-03
             146             964     21.5926E-03     24.2385E-03
             147             964     21.5926E-03     24.2385E-03
             197             964     21.5926E-03     24.2385E-03
             197             965     22.8342E-03     23.1907E-03
             198             965     22.8342E-03     23.1907E-03
             148             965     22.8342E-03     23.1907E-03
             147             965     22.8342E-03     23.1907E-03
             199             966     24.0335E-03     23.8338E-03
             148             966     24.0335E-03     23.8338E-03
             198             966     24.0335E-03     23.8338E-03
             149             966     24.0335E-03     23.8338E-03
             199             967     23.8505E-03     25.0250E-03
             149             967     23.8505E-03     25.0250E-03
             150             967     23.8505E-03     25.0250E-03
             200             967     23.8505E-03     25.0250E-03
             150             968     24.8163E-03     24.9300E-03
             201             968     24.8163E-03     24.9300E-03
             151             968     24.8163E-03     24.9300E-03
             200             968     24.8163E-03     24.9300E-03
             201             969     25.5335E-03     25.5211E-03
             151             969     25.5335E-03     25.5211E-03
             202             969     25.5335E-03     25.5211E-03
             152             969     25.5335E-03     25.5211E-03
             202             970     26.5170E-03     26.1008E-03
             153             970     26.5170E-03     26.1008E-03
             152             970     26.5170E-03     26.1008E-03
             203             970     26.5170E-03     26.1008E-03
             203             971     27.5323E-03     26.5402E-03
             154             971     27.5323E-03     26.5402E-03
             153             971     27.5323E-03     26.5402E-03
             204             971     27.5323E-03     26.5402E-03
             155             972     27.9017E-03     28.5330E-03
             205             972     27.9017E-03     28.5330E-03
             204             972     27.9017E-03     28.5330E-03
             154             972     27.9017E-03     28.5330E-03
             156             973     31.2184E-03     28.6269E-03
             205             973     31.2184E-03     28.6269E-03
             206             973     31.2184E-03     28.6269E-03
             155             973     31.2184E-03     28.6269E-03
             207             974     30.4670E-03     28.7859E-03
             157             974     30.4670E-03     28.7859E-03
             156             974     30.4670E-03     28.7859E-03
             206             974     30.4670E-03     28.7859E-03
             208             975     25.9932E-03     30.5387E-03
             157             975     25.9932E-03     30.5387E-03
             158             975     25.9932E-03     30.5387E-03
             207             975     25.9932E-03     30.5387E-03
             209             976     28.8245E-03     28.9738E-03
             159             976     28.8245E-03     28.9738E-03
             158             976     28.8245E-03     28.9738E-03
             208             976     28.8245E-03     28.9738E-03
             209             977     30.5193E-03     29.5226E-03
             210             977     30.5193E-03     29.5226E-03
             160             977     30.5193E-03     29.5226E-03
             159             977     30.5193E-03     29.5226E-03
             160             978     29.3546E-03     30.9555E-03
             211             978     29.3546E-03     30.9555E-03
             161             978     29.3546E-03     30.9555E-03
             210             978     29.3546E-03     30.9555E-03
             211             979     30.3414E-03     30.2196E-03
             212             979     30.3414E-03     30.2196E-03
             161             979     30.3414E-03     30.2196E-03
             162             979     30.3414E-03     30.2196E-03
             163             980     30.8804E-03     30.7101E-03
             213             980     30.8804E-03     30.7101E-03
             212             980     30.8804E-03     30.7101E-03
             162             980     30.8804E-03     30.7101E-03
             163             981     31.7446E-03     31.1817E-03
             164             981     31.7446E-03     31.1817E-03
             213             981     31.7446E-03     31.1817E-03
             214             981     31.7446E-03     31.1817E-03
             164             982     32.7381E-03     31.4847E-03
             214             982     32.7381E-03     31.4847E-03
             165             982     32.7381E-03     31.4847E-03
             215             982     32.7381E-03     31.4847E-03
             166             983     32.9015E-03     33.8070E-03
             165             983     32.9015E-03     33.8070E-03
             215             983     32.9015E-03     33.8070E-03
             216             983     32.9015E-03     33.8070E-03
             216             984     36.7378E-03     33.5786E-03
             217             984     36.7378E-03     33.5786E-03
             166             984     36.7378E-03     33.5786E-03
             167             984     36.7378E-03     33.5786E-03
             167             985     35.4643E-03     33.5163E-03
             168             985     35.4643E-03     33.5163E-03
             217             985     35.4643E-03     33.5163E-03
             218             985     35.4643E-03     33.5163E-03
             168             986     29.8105E-03     35.7454E-03
             169             986     29.8105E-03     35.7454E-03
             219             986     29.8105E-03     35.7454E-03
             218             986     29.8105E-03     35.7454E-03
             220             987     33.7690E-03     33.6556E-03
             169             987     33.7690E-03     33.6556E-03
             170             987     33.7690E-03     33.6556E-03
             219             987     33.7690E-03     33.6556E-03
             171             988     35.9088E-03     34.1135E-03
             220             988     35.9088E-03     34.1135E-03
             221             988     35.9088E-03     34.1135E-03
             170             988     35.9088E-03     34.1135E-03
             172             989     33.9918E-03     35.6542E-03
             221             989     33.9918E-03     35.6542E-03
             171             989     33.9918E-03     35.6542E-03
             222             989     33.9918E-03     35.6542E-03
             222             990     34.8798E-03     34.6528E-03
             173             990     34.8798E-03     34.6528E-03
             223             990     34.8798E-03     34.6528E-03
             172             990     34.8798E-03     34.6528E-03
             174             991     35.7464E-03     34.8739E-03
             224             991     35.7464E-03     34.8739E-03
             223             991     35.7464E-03     34.8739E-03
             173             991     35.7464E-03     34.8739E-03
             175             992     36.2151E-03     35.1080E-03
             225             992     36.2151E-03     35.1080E-03
             174             992     36.2151E-03     35.1080E-03
             224             992     36.2151E-03     35.1080E-03
             175             993     36.1738E-03     37.2229E-03
             176             993     36.1738E-03     37.2229E-03
             226             993     36.1738E-03     37.2229E-03
             225             993     36.1738E-03     37.2229E-03
             176             994     40.1003E-03     36.6375E-03
             226             994     40.1003E-03     36.6375E-03
             227             994     40.1003E-03     36.6375E-03
             177             994     40.1003E-03     36.6375E-03
             177             995     38.3482E-03     36.2523E-03
             227             995     38.3482E-03     36.2523E-03
             178             995     38.3482E-03     36.2523E-03
             228             995     38.3482E-03     36.2523E-03
             180             996     15.5811E-03     15.7789E-03
             179             996     15.5811E-03     15.7789E-03
             229             996     15.5811E-03     15.7789E-03
             230             996     15.5811E-03     15.7789E-03
             181             997     15.8911E-03     16.1366E-03
             230             997     15.8911E-03     16.1366E-03
             180             997     15.8911E-03     16.1366E-03
             231             997     15.8911E-03     16.1366E-03
             182             998     16.2757E-03     16.3194E-03
             231             998     16.2757E-03     16.3194E-03
             232             998     16.2757E-03     16.3194E-03
             181             998     16.2757E-03     16.3194E-03
             182             999     16.6375E-03     17.0117E-03
             232             999     16.6375E-03     17.0117E-03
             233             999     16.6375E-03     17.0117E-03
             183             999     16.6375E-03     17.0117E-03
             184            1000     18.1015E-03     17.2381E-03
             233            1000     18.1015E-03     17.2381E-03
             234            1000     18.1015E-03     17.2381E-03
             183            1000     18.1015E-03     17.2381E-03
             185            1001     18.3333E-03     17.8647E-03
             234            1001     18.3333E-03     17.8647E-03
             184            1001     18.3333E-03     17.8647E-03
             235            1001     18.3333E-03     17.8647E-03
             236            1002     17.0381E-03     18.7250E-03
             186            1002     17.0381E-03     18.7250E-03
             235            1002     17.0381E-03     18.7250E-03
             185            1002     17.0381E-03     18.7250E-03
             237            1003     17.6561E-03     18.4748E-03
             187            1003     17.6561E-03     18.4748E-03
             186            1003     17.6561E-03     18.4748E-03
             236            1003     17.6561E-03     18.4748E-03
             187            1004     18.4537E-03     19.0259E-03
             237            1004     18.4537E-03     19.0259E-03
             238            1004     18.4537E-03     19.0259E-03
             188            1004     18.4537E-03     19.0259E-03
             239            1005     18.9037E-03     19.6687E-03
             188            1005     18.9037E-03     19.6687E-03
             189            1005     18.9037E-03     19.6687E-03
             238            1005     18.9037E-03     19.6687E-03
             189            1006     19.9588E-03     20.0243E-03
             190            1006     19.9588E-03     20.0243E-03
             239            1006     19.9588E-03     20.0243E-03
             240            1006     19.9588E-03     20.0243E-03
             240            1007     20.8718E-03     21.0999E-03
             190            1007     20.8718E-03     21.0999E-03
             241            1007     20.8718E-03     21.0999E-03
             191            1007     20.8718E-03     21.0999E-03
             192            1008     22.2889E-03     22.2309E-03
             242            1008     22.2889E-03     22.2309E-03
             191            1008     22.2889E-03     22.2309E-03
             241            1008     22.2889E-03     22.2309E-03
             242            1009     23.6959E-03     23.3353E-03
             192            1009     23.6959E-03     23.3353E-03
             193            1009     23.6959E-03     23.3353E-03
             243            1009     23.6959E-03     23.3353E-03
             194            1010     24.5341E-03     26.0067E-03
             244            1010     24.5341E-03     26.0067E-03
             193            1010     24.5341E-03     26.0067E-03
             243            1010     24.5341E-03     26.0067E-03
             195            1011     28.8174E-03     26.3041E-03
             244            1011     28.8174E-03     26.3041E-03
             194            1011     28.8174E-03     26.3041E-03
             245            1011     28.8174E-03     26.3041E-03
             195            1012     28.8641E-03     27.9368E-03
             196            1012     28.8641E-03     27.9368E-03
             246            1012     28.8641E-03     27.9368E-03
             245            1012     28.8641E-03     27.9368E-03
             246            1013     25.0076E-03     31.0433E-03
             197            1013     25.0076E-03     31.0433E-03
             247            1013     25.0076E-03     31.0433E-03
             196            1013     25.0076E-03     31.0433E-03
             198            1014     28.2655E-03     29.0297E-03
             197            1014     28.2655E-03     29.0297E-03
             248            1014     28.2655E-03     29.0297E-03
             247            1014     28.2655E-03     29.0297E-03
             249            1015     29.6870E-03     29.0585E-03
             198            1015     29.6870E-03     29.0585E-03
             199            1015     29.6870E-03     29.0585E-03
             248            1015     29.6870E-03     29.0585E-03
             199            1016     28.3709E-03     30.1535E-03
             250            1016     28.3709E-03     30.1535E-03
             249            1016     28.3709E-03     30.1535E-03
             200            1016     28.3709E-03     30.1535E-03
             200            1017     29.5695E-03     29.6392E-03
             251            1017     29.5695E-03     29.6392E-03
             201            1017     29.5695E-03     29.6392E-03
             250            1017     29.5695E-03     29.6392E-03
             252            1018     30.3061E-03     30.8260E-03
             202            1018     30.3061E-03     30.8260E-03
             251            1018     30.3061E-03     30.8260E-03
             201            1018     30.3061E-03     30.8260E-03
             253            1019     31.7269E-03     31.9378E-03
             202            1019     31.7269E-03     31.9378E-03
             203            1019     31.7269E-03     31.9378E-03
             252            1019     31.7269E-03     31.9378E-03
             204            1020     33.3257E-03     32.8730E-03
             203            1020     33.3257E-03     32.8730E-03
             254            1020     33.3257E-03     32.8730E-03
             253            1020     33.3257E-03     32.8730E-03
             254            1021     34.0348E-03     36.3284E-03
             255            1021     34.0348E-03     36.3284E-03
             205            1021     34.0348E-03     36.3284E-03
             204            1021     34.0348E-03     36.3284E-03
             205            1022     39.9003E-03     36.2525E-03
             255            1022     39.9003E-03     36.2525E-03
             256            1022     39.9003E-03     36.2525E-03
             206            1022     39.9003E-03     36.2525E-03
             257            1023     39.4564E-03     38.2514E-03
             256            1023     39.4564E-03     38.2514E-03
             207            1023     39.4564E-03     38.2514E-03
             206            1023     39.4564E-03     38.2514E-03
             208            1024     33.5428E-03     43.0965E-03
             257            1024     33.5428E-03     43.0965E-03
             207            1024     33.5428E-03     43.0965E-03
             258            1024     33.5428E-03     43.0965E-03
             208            1025     39.0198E-03     39.6452E-03
             209            1025     39.0198E-03     39.6452E-03
             258            1025     39.0198E-03     39.6452E-03
             259            1025     39.0198E-03     39.6452E-03
             210            1026     40.7881E-03     38.9920E-03
             259            1026     40.7881E-03     38.9920E-03
             209            1026     40.7881E-03     38.9920E-03
             260            1026     40.7881E-03     38.9920E-03
             261            1027     37.6159E-03     40.2692E-03
             260            1027     37.6159E-03     40.2692E-03
             210            1027     37.6159E-03     40.2692E-03
             211            1027     37.6159E-03     40.2692E-03
             262            1028     38.7136E-03     38.7273E-03
             261            1028     38.7136E-03     38.7273E-03
             212            1028     38.7136E-03     38.7273E-03
             211            1028     38.7136E-03     38.7273E-03
             263            1029     39.0805E-03     39.7868E-03
             212            1029     39.0805E-03     39.7868E-03
             213            1029     39.0805E-03     39.7868E-03
             262            1029     39.0805E-03     39.7868E-03
             263            1030     40.2741E-03     40.7011E-03
             214            1030     40.2741E-03     40.7011E-03
             213            1030     40.2741E-03     40.7011E-03
             264            1030     40.2741E-03     40.7011E-03
             215            1031     41.8660E-03     41.3560E-03
             214            1031     41.8660E-03     41.3560E-03
             265            1031     41.8660E-03     41.3560E-03
             264            1031     41.8660E-03     41.3560E-03
             215            1032     42.3475E-03     45.3074E-03
             266            1032     42.3475E-03     45.3074E-03
             265            1032     42.3475E-03     45.3074E-03
             216            1032     42.3475E-03     45.3074E-03
             216            1033     49.3172E-03     44.8737E-03
             267            1033     49.3172E-03     44.8737E-03
             266            1033     49.3172E-03     44.8737E-03
             217            1033     49.3172E-03     44.8737E-03
             217            1034     48.4188E-03     47.0908E-03
             218            1034     48.4188E-03     47.0908E-03
             267            1034     48.4188E-03     47.0908E-03
             268            1034     48.4188E-03     47.0908E-03
             218            1035     40.6785E-03     52.9111E-03
             219            1035     40.6785E-03     52.9111E-03
             269            1035     40.6785E-03     52.9111E-03
             268            1035     40.6785E-03     52.9111E-03
             219            1036     47.5871E-03     48.0540E-03
             220            1036     47.5871E-03     48.0540E-03
             270            1036     47.5871E-03     48.0540E-03
             269            1036     47.5871E-03     48.0540E-03
             220            1037     49.7159E-03     46.8511E-03
             221            1037     49.7159E-03     46.8511E-03
             271            1037     49.7159E-03     46.8511E-03
             270            1037     49.7159E-03     46.8511E-03
             272            1038     45.1467E-03     48.1255E-03
             271            1038     45.1467E-03     48.1255E-03
             222            1038     45.1467E-03     48.1255E-03
             221            1038     45.1467E-03     48.1255E-03
             222            1039     45.9317E-03     46.1860E-03
             223            1039     45.9317E-03     46.1860E-03
             273            1039     45.9317E-03     46.1860E-03
             272            1039     45.9317E-03     46.1860E-03
             223            1040     46.9132E-03     46.8265E-03
             273            1040     46.9132E-03     46.8265E-03
             274            1040     46.9132E-03     46.8265E-03
             224            1040     46.9132E-03     46.8265E-03
             274            1041     47.6112E-03     47.3045E-03
             225            1041     47.6112E-03     47.3045E-03
             224            1041     47.6112E-03     47.3045E-03
             275            1041     47.6112E-03     47.3045E-03
             276            1042     47.9525E-03     51.0322E-03
             226            1042     47.9525E-03     51.0322E-03
             225            1042     47.9525E-03     51.0322E-03
             275            1042     47.9525E-03     51.0322E-03
             227            1043     55.4012E-03     50.3552E-03
             277            1043     55.4012E-03     50.3552E-03
             226            1043     55.4012E-03     50.3552E-03
             276            1043     55.4012E-03     50.3552E-03
             227            1044     54.0467E-03     52.6122E-03
             228            1044     54.0467E-03     52.6122E-03
             278            1044     54.0467E-03     52.6122E-03
             277            1044     54.0467E-03     52.6122E-03
             230            1045     12.5612E-03     12.7689E-03
             229            1045     12.5612E-03     12.7689E-03
             280            1045     12.5612E-03     12.7689E-03
             279            1045     12.5612E-03     12.7689E-03
             281            1046     12.5569E-03     12.5470E-03
             230            1046     12.5569E-03     12.5470E-03
             280            1046     12.5569E-03     12.5470E-03
             231            1046     12.5569E-03     12.5470E-03
             282            1047     12.8848E-03     12.5095E-03
             232            1047     12.8848E-03     12.5095E-03
             231            1047     12.8848E-03     12.5095E-03
             281            1047     12.8848E-03     12.5095E-03
             282            1048     13.5654E-03     14.1515E-03
             232            1048     13.5654E-03     14.1515E-03
             233            1048     13.5654E-03     14.1515E-03
             283            1048     13.5654E-03     14.1515E-03
             283            1049     16.3151E-03     15.2905E-03
             284            1049     16.3151E-03     15.2905E-03
             233            1049     16.3151E-03     15.2905E-03
             234            1049     16.3151E-03     15.2905E-03
             284            1050     16.9171E-03     16.9649E-03
             234            1050     16.9171E-03     16.9649E-03
             235            1050     16.9171E-03     16.9649E-03
             285            1050     16.9171E-03     16.9649E-03
             285            1051     16.1206E-03     18.8881E-03
             286            1051     16.1206E-03     18.8881E-03
             235            1051     16.1206E-03     18.8881E-03
             236            1051     16.1206E-03     18.8881E-03
             286            1052     18.0833E-03     18.3873E-03
             236            1052     18.0833E-03     18.3873E-03
             287            1052     18.0833E-03     18.3873E-03
             237            1052     18.0833E-03     18.3873E-03
             288            1053     18.3432E-03     18.4826E-03
             287            1053     18.3432E-03     18.4826E-03
             238            1053     18.3432E-03     18.4826E-03
             237            1053     18.3432E-03     18.4826E-03
             239            1054     18.4230E-03     19.1284E-03
             238            1054     18.4230E-03     19.1284E-03
             288            1054     18.4230E-03     19.1284E-03
             289            1054     18.4230E-03     19.1284E-03
             290            1055     19.8661E-03     20.0479E-03
             239            1055     19.8661E-03     20.0479E-03
             240            1055     19.8661E-03     20.0479E-03
             289            1055     19.8661E-03     20.0479E-03
             291            1056     21.1436E-03     21.9563E-03
             290            1056     21.1436E-03     21.9563E-03
             241            1056     21.1436E-03     21.9563E-03
             240            1056     21.1436E-03     21.9563E-03
             242            1057     23.1965E-03     23.8830E-03
             291            1057     23.1965E-03     23.8830E-03
             292            1057     23.1965E-03     23.8830E-03
             241            1057     23.1965E-03     23.8830E-03
             242            1058     25.4260E-03     25.6530E-03
             292            1058     25.4260E-03     25.6530E-03
             243            1058     25.4260E-03     25.6530E-03
             293            1058     25.4260E-03     25.6530E-03
             243            1059     26.5696E-03     29.5346E-03
             244            1059     26.5696E-03     29.5346E-03
             293            1059     26.5696E-03     29.5346E-03
             294            1059     26.5696E-03     29.5346E-03
             294            1060     32.4767E-03     30.2916E-03
             295            1060     32.4767E-03     30.2916E-03
             244            1060     32.4767E-03     30.2916E-03
             245            1060     32.4767E-03     30.2916E-03
             245            1061     32.7358E-03     32.6781E-03
             295            1061     32.7358E-03     32.6781E-03
             246            1061     32.7358E-03     32.6781E-03
             296            1061     32.7358E-03     32.6781E-03
             247            1062     28.6317E-03     36.9246E-03
             296            1062     28.6317E-03     36.9246E-03
             246            1062     28.6317E-03     36.9246E-03
             297            1062     28.6317E-03     36.9246E-03
             248            1063     33.4710E-03     33.8045E-03
             297            1063     33.4710E-03     33.8045E-03
             247            1063     33.4710E-03     33.8045E-03
             298            1063     33.4710E-03     33.8045E-03
             298            1064     33.9834E-03     33.0892E-03
             248            1064     33.9834E-03     33.0892E-03
             249            1064     33.9834E-03     33.0892E-03
             299            1064     33.9834E-03     33.0892E-03
             249            1065     31.7270E-03     34.2753E-03
             299            1065     31.7270E-03     34.2753E-03
             250            1065     31.7270E-03     34.2753E-03
             300            1065     31.7270E-03     34.2753E-03
             301            1066     33.5402E-03     34.1283E-03
             300            1066     33.5402E-03     34.1283E-03
             250            1066     33.5402E-03     34.1283E-03
             251            1066     33.5402E-03     34.1283E-03
             301            1067     34.4547E-03     36.1548E-03
             302            1067     34.4547E-03     36.1548E-03
             251            1067     34.4547E-03     36.1548E-03
             252            1067     34.4547E-03     36.1548E-03
             253            1068     36.3361E-03     37.9161E-03
             302            1068     36.3361E-03     37.9161E-03
             252            1068     36.3361E-03     37.9161E-03
             303            1068     36.3361E-03     37.9161E-03
             253            1069     38.6517E-03     39.2572E-03
             254            1069     38.6517E-03     39.2572E-03
             304            1069     38.6517E-03     39.2572E-03
             303            1069     38.6517E-03     39.2572E-03
             305            1070     39.2621E-03     43.8052E-03
             255            1070     39.2621E-03     43.8052E-03
             304            1070     39.2621E-03     43.8052E-03
             254            1070     39.2621E-03     43.8052E-03
             256            1071     46.9840E-03     43.9729E-03
             255            1071     46.9840E-03     43.9729E-03
             306            1071     46.9840E-03     43.9729E-03
             305            1071     46.9840E-03     43.9729E-03
             257            1072     46.9729E-03     46.9065E-03
             256            1072     46.9729E-03     46.9065E-03
             307            1072     46.9729E-03     46.9065E-03
             306            1072     46.9729E-03     46.9065E-03
             258            1073     40.5391E-03     53.3364E-03
             257            1073     40.5391E-03     53.3364E-03
             308            1073     40.5391E-03     53.3364E-03
             307            1073     40.5391E-03     53.3364E-03
             259            1074     47.9282E-03     48.2993E-03
             309            1074     47.9282E-03     48.2993E-03
             308            1074     47.9282E-03     48.2993E-03
             258            1074     47.9282E-03     48.2993E-03
             260            1075     48.4839E-03     46.6358E-03
             310            1075     48.4839E-03     46.6358E-03
             259            1075     48.4839E-03     46.6358E-03
             309            1075     48.4839E-03     46.6358E-03
             310            1076     43.8887E-03     48.0002E-03
             261            1076     43.8887E-03     48.0002E-03
             311            1076     43.8887E-03     48.0002E-03
             260            1076     43.8887E-03     48.0002E-03
             312            1077     45.7555E-03     46.6463E-03
             262            1077     45.7555E-03     46.6463E-03
             311            1077     45.7555E-03     46.6463E-03
             261            1077     45.7555E-03     46.6463E-03
             263            1078     46.1503E-03     48.5497E-03
             312            1078     46.1503E-03     48.5497E-03
             313            1078     46.1503E-03     48.5497E-03
             262            1078     46.1503E-03     48.5497E-03
             314            1079     47.6977E-03     50.0052E-03
             264            1079     47.6977E-03     50.0052E-03
             313            1079     47.6977E-03     50.0052E-03
             263            1079     47.6977E-03     50.0052E-03
             314            1080     49.9600E-03     50.8723E-03
             315            1080     49.9600E-03     50.8723E-03
             265            1080     49.9600E-03     50.8723E-03
             264            1080     49.9600E-03     50.8723E-03
             316            1081     50.0547E-03     55.8517E-03
             265            1081     50.0547E-03     55.8517E-03
             315            1081     50.0547E-03     55.8517E-03
             266            1081     50.0547E-03     55.8517E-03
             316            1082     59.1532E-03     55.5336E-03
             317            1082     59.1532E-03     55.5336E-03
             267            1082     59.1532E-03     55.5336E-03
             266            1082     59.1532E-03     55.5336E-03
             267            1083     58.9232E-03     58.8981E-03
             318            1083     58.9232E-03     58.8981E-03
             268            1083     58.9232E-03     58.8981E-03
             317            1083     58.9232E-03     58.8981E-03
             269            1084     50.3748E-03     66.7471E-03
             318            1084     50.3748E-03     66.7471E-03
             268            1084     50.3748E-03     66.7471E-03
             319            1084     50.3748E-03     66.7471E-03
             319            1085     59.4788E-03     59.8838E-03
             269            1085     59.4788E-03     59.8838E-03
             320            1085     59.4788E-03     59.8838E-03
             270            1085     59.4788E-03     59.8838E-03
             270            1086     60.0615E-03     57.4887E-03
             271            1086     60.0615E-03     57.4887E-03
             321            1086     60.0615E-03     57.4887E-03
             320            1086     60.0615E-03     57.4887E-03
             271            1087     53.7618E-03     58.7850E-03
             272            1087     53.7618E-03     58.7850E-03
             322            1087     53.7618E-03     58.7850E-03
             321            1087     53.7618E-03     58.7850E-03
             272            1088     55.1933E-03     56.8516E-03
             273            1088     55.1933E-03     56.8516E-03
             323            1088     55.1933E-03     56.8516E-03
             322            1088     55.1933E-03     56.8516E-03
             274            1089     56.1503E-03     58.4353E-03
             273            1089     56.1503E-03     58.4353E-03
             323            1089     56.1503E-03     58.4353E-03
             324            1089     56.1503E-03     58.4353E-03
             275            1090     57.4159E-03     58.9022E-03
             324            1090     57.4159E-03     58.9022E-03
             274            1090     57.4159E-03     58.9022E-03
             325            1090     57.4159E-03     58.9022E-03
             275            1091     57.3540E-03     63.6723E-03
             276            1091     57.3540E-03     63.6723E-03
             325            1091     57.3540E-03     63.6723E-03
             326            1091     57.3540E-03     63.6723E-03
             277            1092     67.1056E-03     63.1200E-03
             276            1092     67.1056E-03     63.1200E-03
             326            1092     67.1056E-03     63.1200E-03
             327            1092     67.1056E-03     63.1200E-03
             277            1093     66.7157E-03     66.7378E-03
             278            1093     66.7157E-03     66.7378E-03
             328            1093     66.7157E-03     66.7378E-03
             327            1093     66.7157E-03     66.7378E-03
             280            1094     8.88229E-03     9.19370E-03
             330            1094     8.88229E-03     9.19370E-03
             279            1094     8.88229E-03     9.19370E-03
             329            1094     8.88229E-03     9.19370E-03
             281            1095     7.82336E-03     7.06594E-03
             331            1095     7.82336E-03     7.06594E-03
             280            1095     7.82336E-03     7.06594E-03
             330            1095     7.82336E-03     7.06594E-03
             281            1096     8.36609E-03     7.68317E-03
             332            1096     8.36609E-03     7.68317E-03
             282            1096     8.36609E-03     7.68317E-03
             331            1096     8.36609E-03     7.68317E-03
             333            1097     10.1798E-03     11.0443E-03
             283            1097     10.1798E-03     11.0443E-03
             282            1097     10.1798E-03     11.0443E-03
             332            1097     10.1798E-03     11.0443E-03
             283            1098     14.7018E-03     13.5800E-03
             333            1098     14.7018E-03     13.5800E-03
             284            1098     14.7018E-03     13.5800E-03
             334            1098     14.7018E-03     13.5800E-03
             285            1099     17.1870E-03     17.4883E-03
             334            1099     17.1870E-03     17.4883E-03
             335            1099     17.1870E-03     17.4883E-03
             284            1099     17.1870E-03     17.4883E-03
             285            1100     16.0823E-03     18.4171E-03
             335            1100     16.0823E-03     18.4171E-03
             286            1100     16.0823E-03     18.4171E-03
             336            1100     16.0823E-03     18.4171E-03
             287            1101     16.6531E-03     15.6257E-03
             286            1101     16.6531E-03     15.6257E-03
             336            1101     16.6531E-03     15.6257E-03
             337            1101     16.6531E-03     15.6257E-03
             287            1102     16.8769E-03     16.2699E-03
             288            1102     16.8769E-03     16.2699E-03
             338            1102     16.8769E-03     16.2699E-03
             337            1102     16.8769E-03     16.2699E-03
             338            1103     17.7431E-03     17.8966E-03
             288            1103     17.7431E-03     17.8966E-03
             289            1103     17.7431E-03     17.8966E-03
             339            1103     17.7431E-03     17.8966E-03
             289            1104     19.8909E-03     19.9431E-03
             340            1104     19.8909E-03     19.9431E-03
             290            1104     19.8909E-03     19.9431E-03
             339            1104     19.8909E-03     19.9431E-03
             291            1105     22.0388E-03     22.4937E-03
             340            1105     22.0388E-03     22.4937E-03
             290            1105     22.0388E-03     22.4937E-03
             341            1105     22.0388E-03     22.4937E-03
             341            1106     24.5491E-03     25.1493E-03
             342            1106     24.5491E-03     25.1493E-03
             291            1106     24.5491E-03     25.1493E-03
             292            1106     24.5491E-03     25.1493E-03
             293            1107     27.4711E-03     27.4044E-03
             342            1107     27.4711E-03     27.4044E-03
             292            1107     27.4711E-03     27.4044E-03
             343            1107     27.4711E-03     27.4044E-03
             344            1108     29.2168E-03     31.6533E-03
             294            1108     29.2168E-03     31.6533E-03
             293            1108     29.2168E-03     31.6533E-03
             343            1108     29.2168E-03     31.6533E-03
             294            1109     35.2855E-03     33.4068E-03
             344            1109     35.2855E-03     33.4068E-03
             295            1109     35.2855E-03     33.4068E-03
             345            1109     35.2855E-03     33.4068E-03
             346            1110     37.1798E-03     37.0768E-03
             295            1110     37.1798E-03     37.0768E-03
             345            1110     37.1798E-03     37.0768E-03
             296            1110     37.1798E-03     37.0768E-03
             297            1111     33.0193E-03     39.2223E-03
             346            1111     33.0193E-03     39.2223E-03
             347            1111     33.0193E-03     39.2223E-03
             296            1111     33.0193E-03     39.2223E-03
             298            1112     35.5734E-03     34.0692E-03
             297            1112     35.5734E-03     34.0692E-03
             347            1112     35.5734E-03     34.0692E-03
             348            1112     35.5734E-03     34.0692E-03
             298            1113     35.7596E-03     34.3141E-03
             348            1113     35.7596E-03     34.3141E-03
             349            1113     35.7596E-03     34.3141E-03
             299            1113     35.7596E-03     34.3141E-03
             350            1114     34.7499E-03     36.3079E-03
             300            1114     34.7499E-03     36.3079E-03
             349            1114     34.7499E-03     36.3079E-03
             299            1114     34.7499E-03     36.3079E-03
             350            1115     37.2135E-03     37.3217E-03
             351            1115     37.2135E-03     37.3217E-03
             300            1115     37.2135E-03     37.3217E-03
             301            1115     37.2135E-03     37.3217E-03
             302            1116     38.8567E-03     39.8262E-03
             351            1116     38.8567E-03     39.8262E-03
             301            1116     38.8567E-03     39.8262E-03
             352            1116     38.8567E-03     39.8262E-03
             353            1117     41.0333E-03     42.1379E-03
             302            1117     41.0333E-03     42.1379E-03
             352            1117     41.0333E-03     42.1379E-03
             303            1117     41.0333E-03     42.1379E-03
             304            1118     43.8104E-03     43.8373E-03
             303            1118     43.8104E-03     43.8373E-03
             354            1118     43.8104E-03     43.8373E-03
             353            1118     43.8104E-03     43.8373E-03
             305            1119     44.7984E-03     48.3460E-03
             304            1119     44.7984E-03     48.3460E-03
             354            1119     44.7984E-03     48.3460E-03
             355            1119     44.7984E-03     48.3460E-03
             355            1120     51.9723E-03     49.3882E-03
             305            1120     51.9723E-03     49.3882E-03
             356            1120     51.9723E-03     49.3882E-03
             306            1120     51.9723E-03     49.3882E-03
             306            1121     53.6902E-03     53.2313E-03
             356            1121     53.6902E-03     53.2313E-03
             307            1121     53.6902E-03     53.2313E-03
             357            1121     53.6902E-03     53.2313E-03
             307            1122     48.0091E-03     57.4799E-03
             357            1122     48.0091E-03     57.4799E-03
             358            1122     48.0091E-03     57.4799E-03
             308            1122     48.0091E-03     57.4799E-03
             359            1123     52.8062E-03     50.9817E-03
             309            1123     52.8062E-03     50.9817E-03
             308            1123     52.8062E-03     50.9817E-03
             358            1123     52.8062E-03     50.9817E-03
             360            1124     52.5923E-03     50.3351E-03
             359            1124     52.5923E-03     50.3351E-03
             310            1124     52.5923E-03     50.3351E-03
             309            1124     52.5923E-03     50.3351E-03
             360            1125     49.6046E-03     52.3209E-03
             311            1125     49.6046E-03     52.3209E-03
             310            1125     49.6046E-03     52.3209E-03
             361            1125     49.6046E-03     52.3209E-03
             361            1126     52.1116E-03     52.2473E-03
             312            1126     52.1116E-03     52.2473E-03
             362            1126     52.1116E-03     52.2473E-03
             311            1126     52.1116E-03     52.2473E-03
             362            1127     53.1739E-03     54.5656E-03
             312            1127     53.1739E-03     54.5656E-03
             313            1127     53.1739E-03     54.5656E-03
             363            1127     53.1739E-03     54.5656E-03
             363            1128     54.9576E-03     56.4756E-03
             364            1128     54.9576E-03     56.4756E-03
             313            1128     54.9576E-03     56.4756E-03
             314            1128     54.9576E-03     56.4756E-03
             364            1129     57.5223E-03     57.6316E-03
             365            1129     57.5223E-03     57.6316E-03
             314            1129     57.5223E-03     57.6316E-03
             315            1129     57.5223E-03     57.6316E-03
             316            1130     57.8344E-03     62.2628E-03
             315            1130     57.8344E-03     62.2628E-03
             366            1130     57.8344E-03     62.2628E-03
             365            1130     57.8344E-03     62.2628E-03
             316            1131     65.8480E-03     62.6875E-03
             317            1131     65.8480E-03     62.6875E-03
             367            1131     65.8480E-03     62.6875E-03
             366            1131     65.8480E-03     62.6875E-03
             317            1132     67.4318E-03     66.6574E-03
             318            1132     67.4318E-03     66.6574E-03
             367            1132     67.4318E-03     66.6574E-03
             368            1132     67.4318E-03     66.6574E-03
             318            1133     60.3849E-03     72.5014E-03
             369            1133     60.3849E-03     72.5014E-03
             319            1133     60.3849E-03     72.5014E-03
             368            1133     60.3849E-03     72.5014E-03
             320            1134     66.8174E-03     64.8059E-03
             319            1134     66.8174E-03     64.8059E-03
             369            1134     66.8174E-03     64.8059E-03
             370            1134     66.8174E-03     64.8059E-03
             320            1135     66.2466E-03     63.3698E-03
             321            1135     66.2466E-03     63.3698E-03
             370            1135     66.2466E-03     63.3698E-03
             371            1135     66.2466E-03     63.3698E-03
             322            1136     61.6720E-03     65.2432E-03
             371            1136     61.6720E-03     65.2432E-03
             372            1136     61.6720E-03     65.2432E-03
             321            1136     61.6720E-03     65.2432E-03
             322            1137     63.9915E-03     64.4132E-03
             373            1137     63.9915E-03     64.4132E-03
             323            1137     63.9915E-03     64.4132E-03
             372            1137     63.9915E-03     64.4132E-03
             323            1138     64.8892E-03     66.6594E-03
             373            1138     64.8892E-03     66.6594E-03
             374            1138     64.8892E-03     66.6594E-03
             324            1138     64.8892E-03     66.6594E-03
             325            1139     66.8520E-03     67.2218E-03
             324            1139     66.8520E-03     67.2218E-03
             375            1139     66.8520E-03     67.2218E-03
             374            1139     66.8520E-03     67.2218E-03
             375            1140     66.7404E-03     71.6523E-03
             326            1140     66.7404E-03     71.6523E-03
             376            1140     66.7404E-03     71.6523E-03
             325            1140     66.7404E-03     71.6523E-03
             326            1141     75.1396E-03     71.6234E-03
             377            1141     75.1396E-03     71.6234E-03
             376            1141     75.1396E-03     71.6234E-03
             327            1141     75.1396E-03     71.6234E-03
             378            1142     76.5843E-03     75.6340E-03
             327            1142     76.5843E-03     75.6340E-03
             377            1142     76.5843E-03     75.6340E-03
             328            1142     76.5843E-03     75.6340E-03
             379            1143     58.3147E-03     63.8368E-03
             385            1143     58.3147E-03     63.8368E-03
             380            1143     58.3147E-03     63.8368E-03
             386            1143     58.3147E-03     63.8368E-03
             380            1144     68.9202E-03     72.2977E-03
             387            1144     68.9202E-03     72.2977E-03
             381            1144     68.9202E-03     72.2977E-03
             386            1144     68.9202E-03     72.2977E-03
             388            1145     70.7107E-03     73.2021E-03
             381            1145     70.7107E-03     73.2021E-03
             382            1145     70.7107E-03     73.2021E-03
             387            1145     70.7107E-03     73.2021E-03
             383            1146     76.5047E-03     74.7408E-03
             388            1146     76.5047E-03     74.7408E-03
             382            1146     76.5047E-03     74.7408E-03
             389            1146     76.5047E-03     74.7408E-03
             390            1147     77.3998E-03     79.1238E-03
             383            1147     77.3998E-03     79.1238E-03
             384            1147     77.3998E-03     79.1238E-03
             389            1147     77.3998E-03     79.1238E-03
             386            1148     46.1318E-03     47.1562E-03
             385            1148     46.1318E-03     47.1562E-03
             391            1148     46.1318E-03     47.1562E-03
             392            1148     46.1318E-03     47.1562E-03
             387            1149     55.9517E-03     58.2182E-03
             393            1149     55.9517E-03     58.2182E-03
             386            1149     55.9517E-03     58.2182E-03
             392            1149     55.9517E-03     58.2182E-03
             394            1150     59.7057E-03     64.0249E-03
             388            1150     59.7057E-03     64.0249E-03
             393            1150     59.7057E-03     64.0249E-03
             387            1150     59.7057E-03     64.0249E-03
             389            1151     71.3021E-03     67.4268E-03
             395            1151     71.3021E-03     67.4268E-03
             394            1151     71.3021E-03     67.4268E-03
             388            1151     71.3021E-03     67.4268E-03
             390            1152     72.0438E-03     74.4457E-03
             389            1152     72.0438E-03     74.4457E-03
             395            1152     72.0438E-03     74.4457E-03
             396            1152     72.0438E-03     74.4457E-03
             397            1153     45.0041E-03     44.8181E-03
             391            1153     45.0041E-03     44.8181E-03
             392            1153     45.0041E-03     44.8181E-03
             398            1153     45.0041E-03     44.8181E-03
             393            1154     54.3584E-03     53.2419E-03
             399            1154     54.3584E-03     53.2419E-03
             392            1154     54.3584E-03     53.2419E-03
             398            1154     54.3584E-03     53.2419E-03
             394            1155     60.1888E-03     64.7213E-03
             393            1155     60.1888E-03     64.7213E-03
             400            1155     60.1888E-03     64.7213E-03
             399            1155     60.1888E-03     64.7213E-03
             401            1156     74.1425E-03     68.3833E-03
             400            1156     74.1425E-03     68.3833E-03
             395            1156     74.1425E-03     68.3833E-03
             394            1156     74.1425E-03     68.3833E-03
             401            1157     74.5272E-03     75.6195E-03
             402            1157     74.5272E-03     75.6195E-03
             396            1157     74.5272E-03     75.6195E-03
             395            1157     74.5272E-03     75.6195E-03
             398            1158     51.9664E-03     54.5473E-03
             404            1158     51.9664E-03     54.5473E-03
             403            1158     51.9664E-03     54.5473E-03
             397            1158     51.9664E-03     54.5473E-03
             404            1159     61.9703E-03     59.5457E-03
             398            1159     61.9703E-03     59.5457E-03
             405            1159     61.9703E-03     59.5457E-03
             399            1159     61.9703E-03     59.5457E-03
             399            1160     69.1267E-03     70.8816E-03
             405            1160     69.1267E-03     70.8816E-03
             400            1160     69.1267E-03     70.8816E-03
             406            1160     69.1267E-03     70.8816E-03
             406            1161     81.6188E-03     73.5231E-03
             407            1161     81.6188E-03     73.5231E-03
             400            1161     81.6188E-03     73.5231E-03
             401            1161     81.6188E-03     73.5231E-03
             407            1162     80.8430E-03     80.3953E-03
             402            1162     80.8430E-03     80.3953E-03
             401            1162     80.8430E-03     80.3953E-03
             408            1162     80.8430E-03     80.3953E-03
             403            1163     61.9963E-03     68.3305E-03
             404            1163     61.9963E-03     68.3305E-03
             409            1163     61.9963E-03     68.3305E-03
             410            1163     61.9963E-03     68.3305E-03
             411            1164     72.9705E-03     70.4858E-03
             404            1164     72.9705E-03     70.4858E-03
             410            1164     72.9705E-03     70.4858E-03
             405            1164     72.9705E-03     70.4858E-03
             412            1165     77.8551E-03     79.2376E-03
             411            1165     77.8551E-03     79.2376E-03
             406            1165     77.8551E-03     79.2376E-03
             405            1165     77.8551E-03     79.2376E-03
             412            1166     87.5480E-03     81.3612E-03
             407            1166     87.5480E-03     81.3612E-03
             413            1166     87.5480E-03     81.3612E-03
             406            1166     87.5480E-03     81.3612E-03
             408            1167     87.6641E-03     86.9531E-03
             414            1167     87.6641E-03     86.9531E-03
             407            1167     87.6641E-03     86.9531E-03
             413            1167     87.6641E-03     86.9531E-03
             410            1168     71.7001E-03     78.2974E-03
             415            1168     71.7001E-03     78.2974E-03
             416            1168     71.7001E-03     78.2974E-03
             409            1168     71.7001E-03     78.2974E-03
             410            1169     81.4964E-03     78.4799E-03
             416            1169     81.4964E-03     78.4799E-03
             411            1169     81.4964E-03     78.4799E-03
             417            1169     81.4964E-03     78.4799E-03
             411            1170     83.9558E-03     84.3978E-03
             412            1170     83.9558E-03     84.3978E-03
             417            1170     83.9558E-03     84.3978E-03
             418            1170     83.9558E-03     84.3978E-03
             412            1171     91.2679E-03     87.0331E-03
             419            1171     91.2679E-03     87.0331E-03
             413            1171     91.2679E-03     87.0331E-03
             418            1171     91.2679E-03     87.0331E-03
             420            1172     94.6589E-03     91.8878E-03
             419            1172     94.6589E-03     91.8878E-03
             413            1172     94.6589E-03     91.8878E-03
             414            1172     94.6589E-03     91.8878E-03
             421            1173     40.0566E-03     39.0159E-03
             428            1173     40.0566E-03     39.0159E-03
             427            1173     40.0566E-03     39.0159E-03
             422            1173     40.0566E-03     39.0159E-03
             423            1174     41.3028E-03     38.6071E-03
             428            1174     41.3028E-03     38.6071E-03
             422            1174     41.3028E-03     38.6071E-03
             429            1174     41.3028E-03     38.6071E-03
             423            1175     36.2724E-03     39.8478E-03
             424            1175     36.2724E-03     39.8478E-03
             429            1175     36.2724E-03     39.8478E-03
             430            1175     36.2724E-03     39.8478E-03
             424            1176     37.4308E-03     36.0115E-03
             425            1176     37.4308E-03     36.0115E-03
             431            1176     37.4308E-03     36.0115E-03
             430            1176     37.4308E-03     36.0115E-03
             432            1177     35.2572E-03     34.6589E-03
             426            1177     35.2572E-03     34.6589E-03
             431            1177     35.2572E-03     34.6589E-03
             425            1177     35.2572E-03     34.6589E-03
             433            1178     55.6508E-03     54.3001E-03
             427            1178     55.6508E-03     54.3001E-03
             434            1178     55.6508E-03     54.3001E-03
             428            1178     55.6508E-03     54.3001E-03
             428            1179     58.2077E-03     54.0100E-03
             434            1179     58.2077E-03     54.0100E-03
             429            1179     58.2077E-03     54.0100E-03
             435            1179     58.2077E-03     54.0100E-03
             429            1180     51.0466E-03     56.9345E-03
             435            1180     51.0466E-03     56.9345E-03
             430            1180     51.0466E-03     56.9345E-03
             436            1180     51.0466E-03     56.9345E-03
             430            1181     53.4674E-03     50.7068E-03
             437            1181     53.4674E-03     50.7068E-03
             436            1181     53.4674E-03     50.7068E-03
             431            1181     53.4674E-03     50.7068E-03
             437            1182     49.6472E-03     47.5660E-03
             431            1182     49.6472E-03     47.5660E-03
             432            1182     49.6472E-03     47.5660E-03
             438            1182     49.6472E-03     47.5660E-03
             439            1183     70.6928E-03     68.4689E-03
             433            1183     70.6928E-03     68.4689E-03
             434            1183     70.6928E-03     68.4689E-03
             440            1183     70.6928E-03     68.4689E-03
             440            1184     74.5762E-03     67.9157E-03
             434            1184     74.5762E-03     67.9157E-03
             441            1184     74.5762E-03     67.9157E-03
             435            1184     74.5762E-03     67.9157E-03
             441            1185     65.3362E-03     72.2547E-03
             436            1185     65.3362E-03     72.2547E-03
             435            1185     65.3362E-03     72.2547E-03
             442            1185     65.3362E-03     72.2547E-03
             437            1186     68.9702E-03     64.4488E-03
             443            1186     68.9702E-03     64.4488E-03
             436            1186     68.9702E-03     64.4488E-03
             442            1186     68.9702E-03     64.4488E-03
             444            1187     63.5854E-03     60.6519E-03
             437            1187     63.5854E-03     60.6519E-03
             443            1187     63.5854E-03     60.6519E-03
             438            1187     63.5854E-03     60.6519E-03
             446            1188     83.4408E-03     80.9874E-03
             439            1188     83.4408E-03     80.9874E-03
             440            1188     83.4408E-03     80.9874E-03
             445            1188     83.4408E-03     80.9874E-03
             447            1189     87.4788E-03     77.9496E-03
             440            1189     87.4788E-03     77.9496E-03
             446            1189     87.4788E-03     77.9496E-03
             441            1189     87.4788E-03     77.9496E-03
             447            1190     75.5645E-03     83.8290E-03
             448            1190     75.5645E-03     83.8290E-03
             442            1190     75.5645E-03     83.8290E-03
             441            1190     75.5645E-03     83.8290E-03
             442            1191     81.5774E-03     74.8291E-03
             448            1191     81.5774E-03     74.8291E-03
             449            1191     81.5774E-03     74.8291E-03
             443            1191     81.5774E-03     74.8291E-03
             443            1192     75.8862E-03     72.8786E-03
             449            1192     75.8862E-03     72.8786E-03
             444            1192     75.8862E-03     72.8786E-03
             450            1192     75.8862E-03     72.8786E-03
             445            1193     93.1638E-03     91.9606E-03
             452            1193     93.1638E-03     91.9606E-03
             451            1193     93.1638E-03     91.9606E-03
             446            1193     93.1638E-03     91.9606E-03
             446            1194     95.8815E-03     86.8432E-03
             453            1194     95.8815E-03     86.8432E-03
             447            1194     95.8815E-03     86.8432E-03
             452            1194     95.8815E-03     86.8432E-03
             453            1195     80.8905E-03     92.6005E-03
             448            1195     80.8905E-03     92.6005E-03
             454            1195     80.8905E-03     92.6005E-03
             447            1195     80.8905E-03     92.6005E-03
             448            1196     89.4896E-03     82.8575E-03
             454            1196     89.4896E-03     82.8575E-03
             455            1196     89.4896E-03     82.8575E-03
             449            1196     89.4896E-03     82.8575E-03
             456            1197     84.8695E-03     82.9514E-03
             450            1197     84.8695E-03     82.9514E-03
             449            1197     84.8695E-03     82.9514E-03
             455            1197     84.8695E-03     82.9514E-03
             451            1198     101.197E-03     99.1958E-03
             452            1198     101.197E-03     99.1958E-03
             458            1198     101.197E-03     99.1958E-03
             457            1198     101.197E-03     99.1958E-03
             453            1199     100.172E-03     92.6600E-03
             459            1199     100.172E-03     92.6600E-03
             458            1199     100.172E-03     92.6600E-03
             452            1199     100.172E-03     92.6600E-03
             460            1200     86.2079E-03     95.6651E-03
             459            1200     86.2079E-03     95.6651E-03
             453            1200     86.2079E-03     95.6651E-03
             454            1200     86.2079E-03     95.6651E-03
             454            1201     92.5537E-03     86.5001E-03
             460            1201     92.5537E-03     86.5001E-03
             461            1201     92.5537E-03     86.5001E-03
             455            1201     92.5537E-03     86.5001E-03
             455            1202     88.8103E-03     86.6482E-03
             462            1202     88.8103E-03     86.6482E-03
             456            1202     88.8103E-03     86.6482E-03
             461            1202     88.8103E-03     86.6482E-03
             469            1203     973.352E-06     961.760E-06
             464            1203     973.352E-06     961.760E-06
             470            1203     973.352E-06     961.760E-06
             463            1203     973.352E-06     961.760E-06
             470            1204     978.294E-06     967.050E-06
             464            1204     978.294E-06     967.050E-06
             465            1204     978.294E-06     967.050E-06
             471            1204     978.294E-06     967.050E-06
             465            1205     973.348E-06     974.642E-06
             471            1205     973.348E-06     974.642E-06
             466            1205     973.348E-06     974.642E-06
             472            1205     973.348E-06     974.642E-06
             467            1206     988.504E-06     977.527E-06
             472            1206     988.504E-06     977.527E-06
             473            1206     988.504E-06     977.527E-06
             466            1206     988.504E-06     977.527E-06
             467            1207     987.780E-06     966.273E-06
             468            1207     987.780E-06     966.273E-06
             474            1207     987.780E-06     966.273E-06
             473            1207     987.780E-06     966.273E-06
             476            1208     888.975E-06     877.610E-06
             469            1208     888.975E-06     877.610E-06
             475            1208     888.975E-06     877.610E-06
             470            1208     888.975E-06     877.610E-06
             471            1209     897.829E-06     886.997E-06
             470            1209     897.829E-06     886.997E-06
             477            1209     897.829E-06     886.997E-06
             476            1209     897.829E-06     886.997E-06
             477            1210     901.046E-06     906.230E-06
             472            1210     901.046E-06     906.230E-06
             478            1210     901.046E-06     906.230E-06
             471            1210     901.046E-06     906.230E-06
             473            1211     937.278E-06     919.843E-06
             478            1211     937.278E-06     919.843E-06
             472            1211     937.278E-06     919.843E-06
             479            1211     937.278E-06     919.843E-06
             473            1212     939.866E-06     925.796E-06
             480            1212     939.866E-06     925.796E-06
             479            1212     939.866E-06     925.796E-06
             474            1212     939.866E-06     925.796E-06
             475            1213     749.889E-06     743.214E-06
             481            1213     749.889E-06     743.214E-06
             476            1213     749.889E-06     743.214E-06
             482            1213     749.889E-06     743.214E-06
             482            1214     761.541E-06     762.714E-06
             477            1214     761.541E-06     762.714E-06
             476            1214     761.541E-06     762.714E-06
             483            1214     761.541E-06     762.714E-06
             483            1215     782.007E-06     801.057E-06
             484            1215     782.007E-06     801.057E-06
             478            1215     782.007E-06     801.057E-06
             477            1215     782.007E-06     801.057E-06
             484            1216     861.678E-06     822.795E-06
             485            1216     861.678E-06     822.795E-06
             478            1216     861.678E-06     822.795E-06
             479            1216     861.678E-06     822.795E-06
             486            1217     878.455E-06     860.587E-06
             479            1217     878.455E-06     860.587E-06
             485            1217     878.455E-06     860.587E-06
             480            1217     878.455E-06     860.587E-06
             482            1218     554.603E-06     563.142E-06
             488            1218     554.603E-06     563.142E-06
             481            1218     554.603E-06     563.142E-06
             487            1218     554.603E-06     563.142E-06
             488            1219     584.011E-06     598.129E-06
             489            1219     584.011E-06     598.129E-06
             483            1219     584.011E-06     598.129E-06
             482            1219     584.011E-06     598.129E-06
             490            1220     630.525E-06     664.498E-06
             483            1220     630.525E-06     664.498E-06
             484            1220     630.525E-06     664.498E-06
             489            1220     630.525E-06     664.498E-06
             485            1221     766.302E-06     694.753E-06
             484            1221     766.302E-06     694.753E-06
             491            1221     766.302E-06     694.753E-06
             490            1221     766.302E-06     694.753E-06
             486            1222     796.494E-06     785.104E-06
             492            1222     796.494E-06     785.104E-06
             491            1222     796.494E-06     785.104E-06
             485            1222     796.494E-06     785.104E-06
             493            1223     324.378E-06     351.833E-06
             494            1223     324.378E-06     351.833E-06
             487            1223     324.378E-06     351.833E-06
             488            1223     324.378E-06     351.833E-06
             495            1224     372.452E-06     371.058E-06
             494            1224     372.452E-06     371.058E-06
             488            1224     372.452E-06     371.058E-06
             489            1224     372.452E-06     371.058E-06
             490            1225     465.403E-06     504.841E-06
             495            1225     465.403E-06     504.841E-06
             489            1225     465.403E-06     504.841E-06
             496            1225     465.403E-06     504.841E-06
             496            1226     695.029E-06     615.553E-06
             497            1226     695.029E-06     615.553E-06
             491            1226     695.029E-06     615.553E-06
             490            1226     695.029E-06     615.553E-06
             492            1227     757.575E-06     768.728E-06
             491            1227     757.575E-06     768.728E-06
             498            1227     757.575E-06     768.728E-06
             497            1227     757.575E-06     768.728E-06
             500            1228     236.255E-06     296.341E-06
             493            1228     236.255E-06     296.341E-06
             499            1228     236.255E-06     296.341E-06
             494            1228     236.255E-06     296.341E-06
             495            1229     293.954E-06     268.611E-06
             500            1229     293.954E-06     268.611E-06
             501            1229     293.954E-06     268.611E-06
             494            1229     293.954E-06     268.611E-06
             495            1230     425.483E-06     468.954E-06
             501            1230     425.483E-06     468.954E-06
             502            1230     425.483E-06     468.954E-06
             496            1230     425.483E-06     468.954E-06
             502            1231     729.856E-06     671.989E-06
             496            1231     729.856E-06     671.989E-06
             503            1231     729.856E-06     671.989E-06
             497            1231     729.856E-06     671.989E-06
             498            1232     911.026E-06     917.507E-06
             503            1232     911.026E-06     917.507E-06
             497            1232     911.026E-06     917.507E-06
             504            1232     911.026E-06     917.507E-06
             546            1233     28.7981E-03     31.2494E-03
             505            1233     28.7981E-03     31.2494E-03
             545            1233     28.7981E-03     31.2494E-03
             506            1233     28.7981E-03     31.2494E-03
             507            1234     33.4658E-03     32.1730E-03
             546            1234     33.4658E-03     32.1730E-03
             547            1234     33.4658E-03     32.1730E-03
             506            1234     33.4658E-03     32.1730E-03
             508            1235     34.7313E-03     33.0558E-03
             507            1235     34.7313E-03     33.0558E-03
             547            1235     34.7313E-03     33.0558E-03
             548            1235     34.7313E-03     33.0558E-03
             509            1236     31.8053E-03     33.9030E-03
             549            1236     31.8053E-03     33.9030E-03
             508            1236     31.8053E-03     33.9030E-03
             548            1236     31.8053E-03     33.9030E-03
             509            1237     32.1723E-03     32.2513E-03
             510            1237     32.1723E-03     32.2513E-03
             549            1237     32.1723E-03     32.2513E-03
             550            1237     32.1723E-03     32.2513E-03
             550            1238     31.5718E-03     31.8597E-03
             551            1238     31.5718E-03     31.8597E-03
             511            1238     31.5718E-03     31.8597E-03
             510            1238     31.5718E-03     31.8597E-03
             511            1239     30.6807E-03     30.9262E-03
             551            1239     30.6807E-03     30.9262E-03
             552            1239     30.6807E-03     30.9262E-03
             512            1239     30.6807E-03     30.9262E-03
             552            1240     29.8677E-03     29.6049E-03
             513            1240     29.8677E-03     29.6049E-03
             512            1240     29.8677E-03     29.6049E-03
             553            1240     29.8677E-03     29.6049E-03
             514            1241     28.5453E-03     28.9826E-03
             513            1241     28.5453E-03     28.9826E-03
             554            1241     28.5453E-03     28.9826E-03
             553            1241     28.5453E-03     28.9826E-03
             554            1242     28.3890E-03     27.0250E-03
             555            1242     28.3890E-03     27.0250E-03
             515            1242     28.3890E-03     27.0250E-03
             514            1242     28.3890E-03     27.0250E-03
             515            1243     26.6051E-03     25.8066E-03
             555            1243     26.6051E-03     25.8066E-03
             556            1243     26.6051E-03     25.8066E-03
             516            1243     26.6051E-03     25.8066E-03
             556            1244     24.7748E-03     27.4405E-03
             557            1244     24.7748E-03     27.4405E-03
             517            1244     24.7748E-03     27.4405E-03
             516            1244     24.7748E-03     27.4405E-03
             557            1245     28.5350E-03     27.4941E-03
             558            1245     28.5350E-03     27.4941E-03
             518            1245     28.5350E-03     27.4941E-03
             517            1245     28.5350E-03     27.4941E-03
             519            1246     29.2002E-03     28.0079E-03
             558            1246     29.2002E-03     28.0079E-03
             518            1246     29.2002E-03     28.0079E-03
             559            1246     29.2002E-03     28.0079E-03
             560            1247     26.7740E-03     28.3180E-03
             520            1247     26.7740E-03     28.3180E-03
             519            1247     26.7740E-03     28.3180E-03
             559            1247     26.7740E-03     28.3180E-03
             560            1248     26.8440E-03     26.8916E-03
             561            1248     26.8440E-03     26.8916E-03
             521            1248     26.8440E-03     26.8916E-03
             520            1248     26.8440E-03     26.8916E-03
             562            1249     26.2568E-03     26.3522E-03
             561            1249     26.2568E-03     26.3522E-03
             521            1249     26.2568E-03     26.3522E-03
             522            1249     26.2568E-03     26.3522E-03
             562            1250     25.3907E-03     25.5844E-03
             523            1250     25.3907E-03     25.5844E-03
             563            1250     25.3907E-03     25.5844E-03
             522            1250     25.3907E-03     25.5844E-03
             524            1251     24.7495E-03     24.5698E-03
             563            1251     24.7495E-03     24.5698E-03
             564            1251     24.7495E-03     24.5698E-03
             523            1251     24.7495E-03     24.5698E-03
             524            1252     23.9518E-03     23.6321E-03
             564            1252     23.9518E-03     23.6321E-03
             565            1252     23.9518E-03     23.6321E-03
             525            1252     23.9518E-03     23.6321E-03
             525            1253     23.0317E-03     22.9049E-03
             566            1253     23.0317E-03     22.9049E-03
             526            1253     23.0317E-03     22.9049E-03
             565            1253     23.0317E-03     22.9049E-03
             526            1254     22.5256E-03     21.7167E-03
             527            1254     22.5256E-03     21.7167E-03
             567            1254     22.5256E-03     21.7167E-03
             566            1254     22.5256E-03     21.7167E-03
             527            1255     21.4847E-03     21.0268E-03
             568            1255     21.4847E-03     21.0268E-03
             567            1255     21.4847E-03     21.0268E-03
             528            1255     21.4847E-03     21.0268E-03
             529            1256     21.2339E-03     22.2862E-03
             569            1256     21.2339E-03     22.2862E-03
             528            1256     21.2339E-03     22.2862E-03
             568            1256     21.2339E-03     22.2862E-03
             570            1257     23.5887E-03     22.9242E-03
             529            1257     23.5887E-03     22.9242E-03
             530            1257     23.5887E-03     22.9242E-03
             569            1257     23.5887E-03     22.9242E-03
             570            1258     23.7088E-03     23.1028E-03
             530            1258     23.7088E-03     23.1028E-03
             571            1258     23.7088E-03     23.1028E-03
             531            1258     23.7088E-03     23.1028E-03
             572            1259     22.1775E-03     22.9823E-03
             531            1259     22.1775E-03     22.9823E-03
             532            1259     22.1775E-03     22.9823E-03
             571            1259     22.1775E-03     22.9823E-03
             532            1260     22.0277E-03     22.0302E-03
             573            1260     22.0277E-03     22.0302E-03
             572            1260     22.0277E-03     22.0302E-03
             533            1260     22.0277E-03     22.0302E-03
             574            1261     21.5498E-03     21.5744E-03
             573            1261     21.5498E-03     21.5744E-03
             534            1261     21.5498E-03     21.5744E-03
             533            1261     21.5498E-03     21.5744E-03
             574            1262     20.9956E-03     21.0126E-03
             575            1262     20.9956E-03     21.0126E-03
             534            1262     20.9956E-03     21.0126E-03
             535            1262     20.9956E-03     21.0126E-03
             535            1263     20.6011E-03     20.4301E-03
             536            1263     20.6011E-03     20.4301E-03
             575            1263     20.6011E-03     20.4301E-03
             576            1263     20.6011E-03     20.4301E-03
             537            1264     20.2220E-03     19.9978E-03
             536            1264     20.2220E-03     19.9978E-03
             576            1264     20.2220E-03     19.9978E-03
             577            1264     20.2220E-03     19.9978E-03
             577            1265     19.8635E-03     19.5858E-03
             538            1265     19.8635E-03     19.5858E-03
             578            1265     19.8635E-03     19.5858E-03
             537            1265     19.8635E-03     19.5858E-03
             578            1266     19.5549E-03     19.3231E-03
             538            1266     19.5549E-03     19.3231E-03
             539            1266     19.5549E-03     19.3231E-03
             579            1266     19.5549E-03     19.3231E-03
             580            1267     19.8506E-03     19.8213E-03
             579            1267     19.8506E-03     19.8213E-03
             540            1267     19.8506E-03     19.8213E-03
             539            1267     19.8506E-03     19.8213E-03
             581            1268     20.6254E-03     20.3594E-03
             580            1268     20.6254E-03     20.3594E-03
             540            1268     20.6254E-03     20.3594E-03
             541            1268     20.6254E-03     20.3594E-03
             541            1269     20.6094E-03     20.4228E-03
             582            1269     20.6094E-03     20.4228E-03
             581            1269     20.6094E-03     20.4228E-03
             542            1269     20.6094E-03     20.4228E-03
             542            1270     20.3238E-03     20.3401E-03
             543            1270     20.3238E-03     20.3401E-03
             583            1270     20.3238E-03     20.3401E-03
             582            1270     20.3238E-03     20.3401E-03
             543            1271     20.2956E-03     20.1410E-03
             544            1271     20.2956E-03     20.1410E-03
             584            1271     20.2956E-03     20.1410E-03
             583            1271     20.2956E-03     20.1410E-03
             545            1272     42.2433E-03     46.8583E-03
             546            1272     42.2433E-03     46.8583E-03
             586            1272     42.2433E-03     46.8583E-03
             585            1272     42.2433E-03     46.8583E-03
             586            1273     48.4055E-03     46.5465E-03
             547            1273     48.4055E-03     46.5465E-03
             587            1273     48.4055E-03     46.5465E-03
             546            1273     48.4055E-03     46.5465E-03
             588            1274     50.6646E-03     47.0811E-03
             547            1274     50.6646E-03     47.0811E-03
             548            1274     50.6646E-03     47.0811E-03
             587            1274     50.6646E-03     47.0811E-03
             548            1275     45.8458E-03     48.4810E-03
             588            1275     45.8458E-03     48.4810E-03
             549            1275     45.8458E-03     48.4810E-03
             589            1275     45.8458E-03     48.4810E-03
             589            1276     45.9981E-03     45.3655E-03
             590            1276     45.9981E-03     45.3655E-03
             549            1276     45.9981E-03     45.3655E-03
             550            1276     45.9981E-03     45.3655E-03
             550            1277     44.6948E-03     44.5495E-03
             591            1277     44.6948E-03     44.5495E-03
             551            1277     44.6948E-03     44.5495E-03
             590            1277     44.6948E-03     44.5495E-03
             551            1278     43.0656E-03     43.2545E-03
             591            1278     43.0656E-03     43.2545E-03
             552            1278     43.0656E-03     43.2545E-03
             592            1278     43.0656E-03     43.2545E-03
             552            1279     41.6645E-03     41.4010E-03
             593            1279     41.6645E-03     41.4010E-03
             592            1279     41.6645E-03     41.4010E-03
             553            1279     41.6645E-03     41.4010E-03
             593            1280     39.2910E-03     40.9059E-03
             594            1280     39.2910E-03     40.9059E-03
             553            1280     39.2910E-03     40.9059E-03
             554            1280     39.2910E-03     40.9059E-03
             554            1281     39.6022E-03     37.7507E-03
             594            1281     39.6022E-03     37.7507E-03
             555            1281     39.6022E-03     37.7507E-03
             595            1281     39.6022E-03     37.7507E-03
             555            1282     36.5531E-03     35.1498E-03
             595            1282     36.5531E-03     35.1498E-03
             596            1282     36.5531E-03     35.1498E-03
             556            1282     36.5531E-03     35.1498E-03
             597            1283     32.5330E-03     37.8957E-03
             596            1283     32.5330E-03     37.8957E-03
             556            1283     32.5330E-03     37.8957E-03
             557            1283     32.5330E-03     37.8957E-03
             598            1284     38.5507E-03     37.1353E-03
             597            1284     38.5507E-03     37.1353E-03
             558            1284     38.5507E-03     37.1353E-03
             557            1284     38.5507E-03     37.1353E-03
             558            1285     39.8985E-03     37.0474E-03
             599            1285     39.8985E-03     37.0474E-03
             559            1285     39.8985E-03     37.0474E-03
             598            1285     39.8985E-03     37.0474E-03
             599            1286     35.7116E-03     37.5996E-03
             600            1286     35.7116E-03     37.5996E-03
             559            1286     35.7116E-03     37.5996E-03
             560            1286     35.7116E-03     37.5996E-03
             600            1287     35.3864E-03     34.7876E-03
             561            1287     35.3864E-03     34.7876E-03
             560            1287     35.3864E-03     34.7876E-03
             601            1287     35.3864E-03     34.7876E-03
             561            1288     34.0665E-03     33.6737E-03
             602            1288     34.0665E-03     33.6737E-03
             562            1288     34.0665E-03     33.6737E-03
             601            1288     34.0665E-03     33.6737E-03
             603            1289     32.2623E-03     32.4657E-03
             563            1289     32.2623E-03     32.4657E-03
             602            1289     32.2623E-03     32.4657E-03
             562            1289     32.2623E-03     32.4657E-03
             564            1290     30.9978E-03     30.9082E-03
             563            1290     30.9978E-03     30.9082E-03
             603            1290     30.9978E-03     30.9082E-03
             604            1290     30.9978E-03     30.9082E-03
             605            1291     29.4603E-03     29.4321E-03
             564            1291     29.4603E-03     29.4321E-03
             565            1291     29.4603E-03     29.4321E-03
             604            1291     29.4603E-03     29.4321E-03
             606            1292     27.5931E-03     28.4056E-03
             605            1292     27.5931E-03     28.4056E-03
             566            1292     27.5931E-03     28.4056E-03
             565            1292     27.5931E-03     28.4056E-03
             606            1293     26.9905E-03     26.1866E-03
             566            1293     26.9905E-03     26.1866E-03
             567            1293     26.9905E-03     26.1866E-03
             607            1293     26.9905E-03     26.1866E-03
             607            1294     25.0534E-03     24.2905E-03
             568            1294     25.0534E-03     24.2905E-03
             608            1294     25.0534E-03     24.2905E-03
             567            1294     25.0534E-03     24.2905E-03
             609            1295     23.4839E-03     26.1885E-03
             608            1295     23.4839E-03     26.1885E-03
             569            1295     23.4839E-03     26.1885E-03
             568            1295     23.4839E-03     26.1885E-03
             570            1296     27.1194E-03     26.3114E-03
             569            1296     27.1194E-03     26.3114E-03
             609            1296     27.1194E-03     26.3114E-03
             610            1296     27.1194E-03     26.3114E-03
             570            1297     27.4641E-03     25.7741E-03
             611            1297     27.4641E-03     25.7741E-03
             571            1297     27.4641E-03     25.7741E-03
             610            1297     27.4641E-03     25.7741E-03
             571            1298     24.5121E-03     25.5418E-03
             612            1298     24.5121E-03     25.5418E-03
             572            1298     24.5121E-03     25.5418E-03
             611            1298     24.5121E-03     25.5418E-03
             613            1299     23.8163E-03     23.5211E-03
             612            1299     23.8163E-03     23.5211E-03
             572            1299     23.8163E-03     23.5211E-03
             573            1299     23.8163E-03     23.5211E-03
             574            1300     22.6188E-03     22.5328E-03
             573            1300     22.6188E-03     22.5328E-03
             613            1300     22.6188E-03     22.5328E-03
             614            1300     22.6188E-03     22.5328E-03
             574            1301     21.2527E-03     21.4768E-03
             614            1301     21.2527E-03     21.4768E-03
             615            1301     21.2527E-03     21.4768E-03
             575            1301     21.2527E-03     21.4768E-03
             616            1302     20.2187E-03     20.2942E-03
             576            1302     20.2187E-03     20.2942E-03
             575            1302     20.2187E-03     20.2942E-03
             615            1302     20.2187E-03     20.2942E-03
             616            1303     19.1684E-03     19.2798E-03
             576            1303     19.1684E-03     19.2798E-03
             617            1303     19.1684E-03     19.2798E-03
             577            1303     19.1684E-03     19.2798E-03
             617            1304     18.3021E-03     18.3041E-03
             577            1304     18.3021E-03     18.3041E-03
             618            1304     18.3021E-03     18.3041E-03
             578            1304     18.3021E-03     18.3041E-03
             619            1305     17.6398E-03     17.4503E-03
             618            1305     17.6398E-03     17.4503E-03
             578            1305     17.6398E-03     17.4503E-03
             579            1305     17.6398E-03     17.4503E-03
             580            1306     17.7296E-03     18.0212E-03
             620            1306     17.7296E-03     18.0212E-03
             619            1306     17.7296E-03     18.0212E-03
             579            1306     17.7296E-03     18.0212E-03
             621            1307     18.6201E-03     18.5320E-03
             620            1307     18.6201E-03     18.5320E-03
             580            1307     18.6201E-03     18.5320E-03
             581            1307     18.6201E-03     18.5320E-03
             622            1308     18.5600E-03     18.2044E-03
             581            1308     18.5600E-03     18.2044E-03
             582            1308     18.5600E-03     18.2044E-03
             621            1308     18.5600E-03     18.2044E-03
             622            1309     17.9639E-03     18.0173E-03
             623            1309     17.9639E-03     18.0173E-03
             583            1309     17.9639E-03     18.0173E-03
             582            1309     17.9639E-03     18.0173E-03
             624            1310     17.8322E-03     17.7095E-03
             584            1310     17.8322E-03     17.7095E-03
             623            1310     17.8322E-03     17.7095E-03
             583            1310     17.8322E-03     17.7095E-03
             625            1311     54.8608E-03     62.0740E-03
             585            1311     54.8608E-03     62.0740E-03
             626            1311     54.8608E-03     62.0740E-03
             586            1311     54.8608E-03     62.0740E-03
             586            1312     63.2364E-03     61.2417E-03
             627            1312     63.2364E-03     61.2417E-03
             626            1312     63.2364E-03     61.2417E-03
             587            1312     63.2364E-03     61.2417E-03
             588            1313     65.9250E-03     60.4501E-03
             587            1313     65.9250E-03     60.4501E-03
             628            1313     65.9250E-03     60.4501E-03
             627            1313     65.9250E-03     60.4501E-03
             629            1314     58.3306E-03     61.5155E-03
             628            1314     58.3306E-03     61.5155E-03
             588            1314     58.3306E-03     61.5155E-03
             589            1314     58.3306E-03     61.5155E-03
             630            1315     57.8450E-03     56.6628E-03
             629            1315     57.8450E-03     56.6628E-03
             589            1315     57.8450E-03     56.6628E-03
             590            1315     57.8450E-03     56.6628E-03
             590            1316     55.8306E-03     55.3746E-03
             631            1316     55.8306E-03     55.3746E-03
             591            1316     55.8306E-03     55.3746E-03
             630            1316     55.8306E-03     55.3746E-03
             631            1317     53.7901E-03     53.7731E-03
             591            1317     53.7901E-03     53.7731E-03
             632            1317     53.7901E-03     53.7731E-03
             592            1317     53.7901E-03     53.7731E-03
             632            1318     52.3123E-03     51.7355E-03
             633            1318     52.3123E-03     51.7355E-03
             593            1318     52.3123E-03     51.7355E-03
             592            1318     52.3123E-03     51.7355E-03
             634            1319     49.6999E-03     52.1171E-03
             594            1319     49.6999E-03     52.1171E-03
             633            1319     49.6999E-03     52.1171E-03
             593            1319     49.6999E-03     52.1171E-03
             594            1320     51.3247E-03     48.7585E-03
             595            1320     51.3247E-03     48.7585E-03
             634            1320     51.3247E-03     48.7585E-03
             635            1320     51.3247E-03     48.7585E-03
             595            1321     47.4655E-03     45.9840E-03
             636            1321     47.4655E-03     45.9840E-03
             635            1321     47.4655E-03     45.9840E-03
             596            1321     47.4655E-03     45.9840E-03
             596            1322     40.9930E-03     49.9661E-03
             637            1322     40.9930E-03     49.9661E-03
             636            1322     40.9930E-03     49.9661E-03
             597            1322     40.9930E-03     49.9661E-03
             597            1323     49.0696E-03     47.6084E-03
             598            1323     49.0696E-03     47.6084E-03
             638            1323     49.0696E-03     47.6084E-03
             637            1323     49.0696E-03     47.6084E-03
             639            1324     50.6732E-03     46.2777E-03
             598            1324     50.6732E-03     46.2777E-03
             638            1324     50.6732E-03     46.2777E-03
             599            1324     50.6732E-03     46.2777E-03
             600            1325     44.0876E-03     46.5239E-03
             640            1325     44.0876E-03     46.5239E-03
             639            1325     44.0876E-03     46.5239E-03
             599            1325     44.0876E-03     46.5239E-03
             640            1326     43.1024E-03     42.2261E-03
             600            1326     43.1024E-03     42.2261E-03
             601            1326     43.1024E-03     42.2261E-03
             641            1326     43.1024E-03     42.2261E-03
             601            1327     41.0419E-03     40.4730E-03
             642            1327     41.0419E-03     40.4730E-03
             602            1327     41.0419E-03     40.4730E-03
             641            1327     41.0419E-03     40.4730E-03
             603            1328     38.5198E-03     38.8044E-03
             602            1328     38.5198E-03     38.8044E-03
             642            1328     38.5198E-03     38.8044E-03
             643            1328     38.5198E-03     38.8044E-03
             644            1329     36.9339E-03     36.7634E-03
             604            1329     36.9339E-03     36.7634E-03
             643            1329     36.9339E-03     36.7634E-03
             603            1329     36.9339E-03     36.7634E-03
             645            1330     35.1194E-03     35.0584E-03
             605            1330     35.1194E-03     35.0584E-03
             644            1330     35.1194E-03     35.0584E-03
             604            1330     35.1194E-03     35.0584E-03
             605            1331     32.7974E-03     34.3633E-03
             645            1331     32.7974E-03     34.3633E-03
             606            1331     32.7974E-03     34.3633E-03
             646            1331     32.7974E-03     34.3633E-03
             607            1332     32.7068E-03     31.7261E-03
             606            1332     32.7068E-03     31.7261E-03
             646            1332     32.7068E-03     31.7261E-03
             647            1332     32.7068E-03     31.7261E-03
             608            1333     30.0422E-03     29.2896E-03
             647            1333     30.0422E-03     29.2896E-03
             648            1333     30.0422E-03     29.2896E-03
             607            1333     30.0422E-03     29.2896E-03
             608            1334     26.6297E-03     31.7119E-03
             648            1334     26.6297E-03     31.7119E-03
             609            1334     26.6297E-03     31.7119E-03
             649            1334     26.6297E-03     31.7119E-03
             609            1335     31.4037E-03     30.5582E-03
             649            1335     31.4037E-03     30.5582E-03
             610            1335     31.4037E-03     30.5582E-03
             650            1335     31.4037E-03     30.5582E-03
             610            1336     31.7314E-03     28.8607E-03
             651            1336     31.7314E-03     28.8607E-03
             650            1336     31.7314E-03     28.8607E-03
             611            1336     31.7314E-03     28.8607E-03
             612            1337     26.9332E-03     28.2857E-03
             611            1337     26.9332E-03     28.2857E-03
             652            1337     26.9332E-03     28.2857E-03
             651            1337     26.9332E-03     28.2857E-03
             652            1338     25.6066E-03     25.0885E-03
             653            1338     25.6066E-03     25.0885E-03
             613            1338     25.6066E-03     25.0885E-03
             612            1338     25.6066E-03     25.0885E-03
             614            1339     23.7104E-03     23.4768E-03
             653            1339     23.7104E-03     23.4768E-03
             654            1339     23.7104E-03     23.4768E-03
             613            1339     23.7104E-03     23.4768E-03
             654            1340     21.6243E-03     21.8608E-03
             615            1340     21.6243E-03     21.8608E-03
             614            1340     21.6243E-03     21.8608E-03
             655            1340     21.6243E-03     21.8608E-03
             616            1341     19.9722E-03     20.1240E-03
             655            1341     19.9722E-03     20.1240E-03
             615            1341     19.9722E-03     20.1240E-03
             656            1341     19.9722E-03     20.1240E-03
             657            1342     18.2325E-03     18.7331E-03
             656            1342     18.2325E-03     18.7331E-03
             616            1342     18.2325E-03     18.7331E-03
             617            1342     18.2325E-03     18.7331E-03
             617            1343     16.7708E-03     17.1983E-03
             657            1343     16.7708E-03     17.1983E-03
             658            1343     16.7708E-03     17.1983E-03
             618            1343     16.7708E-03     17.1983E-03
             658            1344     15.6193E-03     15.5873E-03
             659            1344     15.6193E-03     15.5873E-03
             619            1344     15.6193E-03     15.5873E-03
             618            1344     15.6193E-03     15.5873E-03
             619            1345     15.2363E-03     16.0330E-03
             620            1345     15.2363E-03     16.0330E-03
             660            1345     15.2363E-03     16.0330E-03
             659            1345     15.2363E-03     16.0330E-03
             621            1346     16.2287E-03     16.2036E-03
             660            1346     16.2287E-03     16.2036E-03
             620            1346     16.2287E-03     16.2036E-03
             661            1346     16.2287E-03     16.2036E-03
             661            1347     15.8788E-03     15.2544E-03
             621            1347     15.8788E-03     15.2544E-03
             662            1347     15.8788E-03     15.2544E-03
             622            1347     15.8788E-03     15.2544E-03
             663            1348     14.6263E-03     14.9249E-03
             662            1348     14.6263E-03     14.9249E-03
             622            1348     14.6263E-03     14.9249E-03
             623            1348     14.6263E-03     14.9249E-03
             663            1349     14.4655E-03     14.4539E-03
             624            1349     14.4655E-03     14.4539E-03
             664            1349     14.4655E-03     14.4539E-03
             623            1349     14.4655E-03     14.4539E-03
             626            1350     65.5224E-03     76.1335E-03
             665            1350     65.5224E-03     76.1335E-03
             625            1350     65.5224E-03     76.1335E-03
             666            1350     65.5224E-03     76.1335E-03
             627            1351     76.0802E-03     74.6699E-03
             626            1351     76.0802E-03     74.6699E-03
             666            1351     76.0802E-03     74.6699E-03
             667            1351     76.0802E-03     74.6699E-03
             668            1352     78.3335E-03     71.4433E-03
             628            1352     78.3335E-03     71.4433E-03
             627            1352     78.3335E-03     71.4433E-03
             667            1352     78.3335E-03     71.4433E-03
             628            1353     67.5978E-03     72.6493E-03
             668            1353     67.5978E-03     72.6493E-03
             629            1353     67.5978E-03     72.6493E-03
             669            1353     67.5978E-03     72.6493E-03
             670            1354     66.6837E-03     66.2571E-03
             669            1354     66.6837E-03     66.2571E-03
             630            1354     66.6837E-03     66.2571E-03
             629            1354     66.6837E-03     66.2571E-03
             631            1355     64.0570E-03     64.6419E-03
             671            1355     64.0570E-03     64.6419E-03
             670            1355     64.0570E-03     64.6419E-03
             630            1355     64.0570E-03     64.6419E-03
             631            1356     61.6212E-03     62.6181E-03
             672            1356     61.6212E-03     62.6181E-03
             671            1356     61.6212E-03     62.6181E-03
             632            1356     61.6212E-03     62.6181E-03
             633            1357     60.2218E-03     60.0109E-03
             673            1357     60.2218E-03     60.0109E-03
             672            1357     60.2218E-03     60.0109E-03
             632            1357     60.2218E-03     60.0109E-03
             633            1358     57.5501E-03     61.1309E-03
             634            1358     57.5501E-03     61.1309E-03
             673            1358     57.5501E-03     61.1309E-03
             674            1358     57.5501E-03     61.1309E-03
             675            1359     61.3247E-03     57.7657E-03
             674            1359     61.3247E-03     57.7657E-03
             635            1359     61.3247E-03     57.7657E-03
             634            1359     61.3247E-03     57.7657E-03
             676            1360     57.5383E-03     56.4920E-03
             635            1360     57.5383E-03     56.4920E-03
             675            1360     57.5383E-03     56.4920E-03
             636            1360     57.5383E-03     56.4920E-03
             637            1361     48.7411E-03     62.7249E-03
             676            1361     48.7411E-03     62.7249E-03
             636            1361     48.7411E-03     62.7249E-03
             677            1361     48.7411E-03     62.7249E-03
             677            1362     58.3623E-03     57.3676E-03
             637            1362     58.3623E-03     57.3676E-03
             678            1362     58.3623E-03     57.3676E-03
             638            1362     58.3623E-03     57.3676E-03
             639            1363     59.6464E-03     54.1584E-03
             678            1363     59.6464E-03     54.1584E-03
             638            1363     59.6464E-03     54.1584E-03
             679            1363     59.6464E-03     54.1584E-03
             680            1364     50.5657E-03     54.5672E-03
             679            1364     50.5657E-03     54.5672E-03
             639            1364     50.5657E-03     54.5672E-03
             640            1364     50.5657E-03     54.5672E-03
             681            1365     49.1429E-03     48.9963E-03
             641            1365     49.1429E-03     48.9963E-03
             680            1365     49.1429E-03     48.9963E-03
             640            1365     49.1429E-03     48.9963E-03
             682            1366     46.5368E-03     46.7239E-03
             642            1366     46.5368E-03     46.7239E-03
             681            1366     46.5368E-03     46.7239E-03
             641            1366     46.5368E-03     46.7239E-03
             682            1367     43.3097E-03     44.5436E-03
             642            1367     43.3097E-03     44.5436E-03
             643            1367     43.3097E-03     44.5436E-03
             683            1367     43.3097E-03     44.5436E-03
             643            1368     41.5367E-03     41.8805E-03
             684            1368     41.5367E-03     41.8805E-03
             644            1368     41.5367E-03     41.8805E-03
             683            1368     41.5367E-03     41.8805E-03
             685            1369     39.5415E-03     39.6957E-03
             645            1369     39.5415E-03     39.6957E-03
             684            1369     39.5415E-03     39.6957E-03
             644            1369     39.5415E-03     39.6957E-03
             645            1370     37.0139E-03     39.2454E-03
             686            1370     37.0139E-03     39.2454E-03
             685            1370     37.0139E-03     39.2454E-03
             646            1370     37.0139E-03     39.2454E-03
             686            1371     38.1621E-03     36.5836E-03
             687            1371     38.1621E-03     36.5836E-03
             647            1371     38.1621E-03     36.5836E-03
             646            1371     38.1621E-03     36.5836E-03
             688            1372     35.3252E-03     34.8753E-03
             648            1372     35.3252E-03     34.8753E-03
             687            1372     35.3252E-03     34.8753E-03
             647            1372     35.3252E-03     34.8753E-03
             648            1373     30.0618E-03     38.3934E-03
             649            1373     30.0618E-03     38.3934E-03
             689            1373     30.0618E-03     38.3934E-03
             688            1373     30.0618E-03     38.3934E-03
             690            1374     35.5527E-03     35.0005E-03
             650            1374     35.5527E-03     35.0005E-03
             689            1374     35.5527E-03     35.0005E-03
             649            1374     35.5527E-03     35.0005E-03
             650            1375     35.6048E-03     31.9521E-03
             690            1375     35.6048E-03     31.9521E-03
             691            1375     35.6048E-03     31.9521E-03
             651            1375     35.6048E-03     31.9521E-03
             652            1376     29.0060E-03     31.4126E-03
             691            1376     29.0060E-03     31.4126E-03
             692            1376     29.0060E-03     31.4126E-03
             651            1376     29.0060E-03     31.4126E-03
             692            1377     27.1912E-03     26.9838E-03
             652            1377     27.1912E-03     26.9838E-03
             693            1377     27.1912E-03     26.9838E-03
             653            1377     27.1912E-03     26.9838E-03
             693            1378     24.6310E-03     24.6286E-03
             654            1378     24.6310E-03     24.6286E-03
             653            1378     24.6310E-03     24.6286E-03
             694            1378     24.6310E-03     24.6286E-03
             654            1379     21.7986E-03     22.2751E-03
             655            1379     21.7986E-03     22.2751E-03
             694            1379     21.7986E-03     22.2751E-03
             695            1379     21.7986E-03     22.2751E-03
             696            1380     19.7015E-03     19.7454E-03
             695            1380     19.7015E-03     19.7454E-03
             656            1380     19.7015E-03     19.7454E-03
             655            1380     19.7015E-03     19.7454E-03
             697            1381     17.4132E-03     18.0565E-03
             696            1381     17.4132E-03     18.0565E-03
             657            1381     17.4132E-03     18.0565E-03
             656            1381     17.4132E-03     18.0565E-03
             658            1382     15.8008E-03     16.2984E-03
             698            1382     15.8008E-03     16.2984E-03
             657            1382     15.8008E-03     16.2984E-03
             697            1382     15.8008E-03     16.2984E-03
             659            1383     14.2152E-03     14.3515E-03
             658            1383     14.2152E-03     14.3515E-03
             699            1383     14.2152E-03     14.3515E-03
             698            1383     14.2152E-03     14.3515E-03
             659            1384     12.6593E-03     14.5656E-03
             700            1384     12.6593E-03     14.5656E-03
             699            1384     12.6593E-03     14.5656E-03
             660            1384     12.6593E-03     14.5656E-03
             700            1385     13.4726E-03     13.4879E-03
             701            1385     13.4726E-03     13.4879E-03
             661            1385     13.4726E-03     13.4879E-03
             660            1385     13.4726E-03     13.4879E-03
             661            1386     12.8616E-03     11.7654E-03
             702            1386     12.8616E-03     11.7654E-03
             662            1386     12.8616E-03     11.7654E-03
             701            1386     12.8616E-03     11.7654E-03
             663            1387     10.6290E-03     11.4835E-03
             702            1387     10.6290E-03     11.4835E-03
             662            1387     10.6290E-03     11.4835E-03
             703            1387     10.6290E-03     11.4835E-03
             703            1388     10.1934E-03     10.4730E-03
             663            1388     10.1934E-03     10.4730E-03
             664            1388     10.1934E-03     10.4730E-03
             704            1388     10.1934E-03     10.4730E-03
             706            1389     73.5573E-03     86.3535E-03
             705            1389     73.5573E-03     86.3535E-03
             666            1389     73.5573E-03     86.3535E-03
             665            1389     73.5573E-03     86.3535E-03
             666            1390     85.8728E-03     85.3489E-03
             667            1390     85.8728E-03     85.3489E-03
             707            1390     85.8728E-03     85.3489E-03
             706            1390     85.8728E-03     85.3489E-03
             707            1391     87.0073E-03     80.9898E-03
             667            1391     87.0073E-03     80.9898E-03
             708            1391     87.0073E-03     80.9898E-03
             668            1391     87.0073E-03     80.9898E-03
             669            1392     74.0954E-03     81.8518E-03
             668            1392     74.0954E-03     81.8518E-03
             708            1392     74.0954E-03     81.8518E-03
             709            1392     74.0954E-03     81.8518E-03
             669            1393     73.6200E-03     74.5180E-03
             710            1393     73.6200E-03     74.5180E-03
             670            1393     73.6200E-03     74.5180E-03
             709            1393     73.6200E-03     74.5180E-03
             670            1394     70.2752E-03     72.8181E-03
             671            1394     70.2752E-03     72.8181E-03
             711            1394     70.2752E-03     72.8181E-03
             710            1394     70.2752E-03     72.8181E-03
             671            1395     67.4359E-03     70.3007E-03
             672            1395     67.4359E-03     70.3007E-03
             712            1395     67.4359E-03     70.3007E-03
             711            1395     67.4359E-03     70.3007E-03
             672            1396     65.9646E-03     66.9499E-03
             712            1396     65.9646E-03     66.9499E-03
             673            1396     65.9646E-03     66.9499E-03
             713            1396     65.9646E-03     66.9499E-03
             713            1397     62.3245E-03     67.8482E-03
             674            1397     62.3245E-03     67.8482E-03
             714            1397     62.3245E-03     67.8482E-03
             673            1397     62.3245E-03     67.8482E-03
             675            1398     67.3423E-03     64.1809E-03
             714            1398     67.3423E-03     64.1809E-03
             715            1398     67.3423E-03     64.1809E-03
             674            1398     67.3423E-03     64.1809E-03
             716            1399     64.5683E-03     64.0280E-03
             676            1399     64.5683E-03     64.0280E-03
             715            1399     64.5683E-03     64.0280E-03
             675            1399     64.5683E-03     64.0280E-03
             677            1400     54.8769E-03     72.0102E-03
             717            1400     54.8769E-03     72.0102E-03
             676            1400     54.8769E-03     72.0102E-03
             716            1400     54.8769E-03     72.0102E-03
             718            1401     65.7133E-03     65.3677E-03
             717            1401     65.7133E-03     65.3677E-03
             678            1401     65.7133E-03     65.3677E-03
             677            1401     65.7133E-03     65.3677E-03
             719            1402     66.2355E-03     61.3839E-03
             718            1402     66.2355E-03     61.3839E-03
             679            1402     66.2355E-03     61.3839E-03
             678            1402     66.2355E-03     61.3839E-03
             679            1403     55.4304E-03     61.4124E-03
             719            1403     55.4304E-03     61.4124E-03
             720            1403     55.4304E-03     61.4124E-03
             680            1403     55.4304E-03     61.4124E-03
             681            1404     54.1777E-03     54.9410E-03
             721            1404     54.1777E-03     54.9410E-03
             720            1404     54.1777E-03     54.9410E-03
             680            1404     54.1777E-03     54.9410E-03
             722            1405     50.9787E-03     52.4734E-03
             721            1405     50.9787E-03     52.4734E-03
             682            1405     50.9787E-03     52.4734E-03
             681            1405     50.9787E-03     52.4734E-03
             683            1406     47.3012E-03     49.7133E-03
             682            1406     47.3012E-03     49.7133E-03
             723            1406     47.3012E-03     49.7133E-03
             722            1406     47.3012E-03     49.7133E-03
             723            1407     45.1598E-03     46.5919E-03
             724            1407     45.1598E-03     46.5919E-03
             683            1407     45.1598E-03     46.5919E-03
             684            1407     45.1598E-03     46.5919E-03
             684            1408     42.7155E-03     43.6859E-03
             725            1408     42.7155E-03     43.6859E-03
             724            1408     42.7155E-03     43.6859E-03
             685            1408     42.7155E-03     43.6859E-03
             685            1409     39.5331E-03     42.7456E-03
             726            1409     39.5331E-03     42.7456E-03
             725            1409     39.5331E-03     42.7456E-03
             686            1409     39.5331E-03     42.7456E-03
             687            1410     41.2284E-03     39.7636E-03
             726            1410     41.2284E-03     39.7636E-03
             686            1410     41.2284E-03     39.7636E-03
             727            1410     41.2284E-03     39.7636E-03
             687            1411     39.0390E-03     38.7597E-03
             727            1411     39.0390E-03     38.7597E-03
             728            1411     39.0390E-03     38.7597E-03
             688            1411     39.0390E-03     38.7597E-03
             688            1412     33.1582E-03     43.5365E-03
             689            1412     33.1582E-03     43.5365E-03
             728            1412     33.1582E-03     43.5365E-03
             729            1412     33.1582E-03     43.5365E-03
             689            1413     39.5212E-03     39.4179E-03
             729            1413     39.5212E-03     39.4179E-03
             690            1413     39.5212E-03     39.4179E-03
             730            1413     39.5212E-03     39.4179E-03
             691            1414     39.1650E-03     35.8637E-03
             731            1414     39.1650E-03     35.8637E-03
             690            1414     39.1650E-03     35.8637E-03
             730            1414     39.1650E-03     35.8637E-03
             732            1415     31.1359E-03     34.8129E-03
             731            1415     31.1359E-03     34.8129E-03
             691            1415     31.1359E-03     34.8129E-03
             692            1415     31.1359E-03     34.8129E-03
             692            1416     29.0823E-03     29.3276E-03
             733            1416     29.0823E-03     29.3276E-03
             732            1416     29.0823E-03     29.3276E-03
             693            1416     29.0823E-03     29.3276E-03
             734            1417     25.7261E-03     26.4147E-03
             693            1417     25.7261E-03     26.4147E-03
             694            1417     25.7261E-03     26.4147E-03
             733            1417     25.7261E-03     26.4147E-03
             694            1418     22.1929E-03     23.2685E-03
             735            1418     22.1929E-03     23.2685E-03
             734            1418     22.1929E-03     23.2685E-03
             695            1418     22.1929E-03     23.2685E-03
             735            1419     19.5512E-03     19.8897E-03
             695            1419     19.5512E-03     19.8897E-03
             696            1419     19.5512E-03     19.8897E-03
             736            1419     19.5512E-03     19.8897E-03
             697            1420     16.5429E-03     17.3925E-03
             696            1420     16.5429E-03     17.3925E-03
             737            1420     16.5429E-03     17.3925E-03
             736            1420     16.5429E-03     17.3925E-03
             738            1421     14.7742E-03     15.0829E-03
             697            1421     14.7742E-03     15.0829E-03
             737            1421     14.7742E-03     15.0829E-03
             698            1421     14.7742E-03     15.0829E-03
             699            1422     13.2256E-03     13.2309E-03
             698            1422     13.2256E-03     13.2309E-03
             738            1422     13.2256E-03     13.2309E-03
             739            1422     13.2256E-03     13.2309E-03
             699            1423     10.7507E-03     13.9108E-03
             740            1423     10.7507E-03     13.9108E-03
             739            1423     10.7507E-03     13.9108E-03
             700            1423     10.7507E-03     13.9108E-03
             700            1424     11.5895E-03     11.9148E-03
             740            1424     11.5895E-03     11.9148E-03
             701            1424     11.5895E-03     11.9148E-03
             741            1424     11.5895E-03     11.9148E-03
             701            1425     10.3775E-03     8.70778E-03
             742            1425     10.3775E-03     8.70778E-03
             702            1425     10.3775E-03     8.70778E-03
             741            1425     10.3775E-03     8.70778E-03
             702            1426     6.32434E-03     7.44978E-03
             743            1426     6.32434E-03     7.44978E-03
             742            1426     6.32434E-03     7.44978E-03
             703            1426     6.32434E-03     7.44978E-03
             704            1427     5.33771E-03     6.04292E-03
             703            1427     5.33771E-03     6.04292E-03
             744            1427     5.33771E-03     6.04292E-03
             743            1427     5.33771E-03     6.04292E-03
             705            1428     81.4712E-03     91.4428E-03
             746            1428     81.4712E-03     91.4428E-03
             745            1428     81.4712E-03     91.4428E-03
             706            1428     81.4712E-03     91.4428E-03
             747            1429     93.6061E-03     91.7130E-03
             746            1429     93.6061E-03     91.7130E-03
             706            1429     93.6061E-03     91.7130E-03
             707            1429     93.6061E-03     91.7130E-03
             747            1430     91.4725E-03     86.4850E-03
             748            1430     91.4725E-03     86.4850E-03
             708            1430     91.4725E-03     86.4850E-03
             707            1430     91.4725E-03     86.4850E-03
             708            1431     80.1425E-03     85.8633E-03
             748            1431     80.1425E-03     85.8633E-03
             749            1431     80.1425E-03     85.8633E-03
             709            1431     80.1425E-03     85.8633E-03
             710            1432     79.4925E-03     79.3028E-03
             749            1432     79.4925E-03     79.3028E-03
             750            1432     79.4925E-03     79.3028E-03
             709            1432     79.4925E-03     79.3028E-03
             750            1433     75.8073E-03     77.4706E-03
             711            1433     75.8073E-03     77.4706E-03
             751            1433     75.8073E-03     77.4706E-03
             710            1433     75.8073E-03     77.4706E-03
             752            1434     72.8998E-03     74.5630E-03
             711            1434     72.8998E-03     74.5630E-03
             751            1434     72.8998E-03     74.5630E-03
             712            1434     72.8998E-03     74.5630E-03
             753            1435     70.7597E-03     70.9872E-03
             713            1435     70.7597E-03     70.9872E-03
             712            1435     70.7597E-03     70.9872E-03
             752            1435     70.7597E-03     70.9872E-03
             714            1436     66.5579E-03     70.3971E-03
             754            1436     66.5579E-03     70.3971E-03
             713            1436     66.5579E-03     70.3971E-03
             753            1436     66.5579E-03     70.3971E-03
             754            1437     69.0900E-03     66.1258E-03
             714            1437     69.0900E-03     66.1258E-03
             755            1437     69.0900E-03     66.1258E-03
             715            1437     69.0900E-03     66.1258E-03
             756            1438     66.8048E-03     65.0285E-03
             715            1438     66.8048E-03     65.0285E-03
             716            1438     66.8048E-03     65.0285E-03
             755            1438     66.8048E-03     65.0285E-03
             756            1439     61.8194E-03     74.6131E-03
             716            1439     61.8194E-03     74.6131E-03
             757            1439     61.8194E-03     74.6131E-03
             717            1439     61.8194E-03     74.6131E-03
             717            1440     72.2864E-03     70.9442E-03
             718            1440     72.2864E-03     70.9442E-03
             758            1440     72.2864E-03     70.9442E-03
             757            1440     72.2864E-03     70.9442E-03
             718            1441     69.9233E-03     65.9649E-03
             758            1441     69.9233E-03     65.9649E-03
             759            1441     69.9233E-03     65.9649E-03
             719            1441     69.9233E-03     65.9649E-03
             719            1442     60.0743E-03     64.5307E-03
             759            1442     60.0743E-03     64.5307E-03
             720            1442     60.0743E-03     64.5307E-03
             760            1442     60.0743E-03     64.5307E-03
             721            1443     58.6139E-03     58.4348E-03
             761            1443     58.6139E-03     58.4348E-03
             720            1443     58.6139E-03     58.4348E-03
             760            1443     58.6139E-03     58.4348E-03
             721            1444     54.9101E-03     55.9427E-03
             762            1444     54.9101E-03     55.9427E-03
             761            1444     54.9101E-03     55.9427E-03
             722            1444     54.9101E-03     55.9427E-03
             762            1445     51.4956E-03     52.7127E-03
             723            1445     51.4956E-03     52.7127E-03
             722            1445     51.4956E-03     52.7127E-03
             763            1445     51.4956E-03     52.7127E-03
             764            1446     48.6483E-03     49.5111E-03
             723            1446     48.6483E-03     49.5111E-03
             763            1446     48.6483E-03     49.5111E-03
             724            1446     48.6483E-03     49.5111E-03
             765            1447     45.7374E-03     46.0754E-03
             724            1447     45.7374E-03     46.0754E-03
             764            1447     45.7374E-03     46.0754E-03
             725            1447     45.7374E-03     46.0754E-03
             725            1448     41.8827E-03     44.0308E-03
             765            1448     41.8827E-03     44.0308E-03
             766            1448     41.8827E-03     44.0308E-03
             726            1448     41.8827E-03     44.0308E-03
             767            1449     41.6480E-03     40.0913E-03
             766            1449     41.6480E-03     40.0913E-03
             726            1449     41.6480E-03     40.0913E-03
             727            1449     41.6480E-03     40.0913E-03
             728            1450     39.1449E-03     37.9762E-03
             768            1450     39.1449E-03     37.9762E-03
             767            1450     39.1449E-03     37.9762E-03
             727            1450     39.1449E-03     37.9762E-03
             769            1451     37.2611E-03     45.0230E-03
             728            1451     37.2611E-03     45.0230E-03
             768            1451     37.2611E-03     45.0230E-03
             729            1451     37.2611E-03     45.0230E-03
             770            1452     44.6366E-03     44.0037E-03
             729            1452     44.6366E-03     44.0037E-03
             769            1452     44.6366E-03     44.0037E-03
             730            1452     44.6366E-03     44.0037E-03
             770            1453     41.9128E-03     39.3174E-03
             730            1453     41.9128E-03     39.3174E-03
             771            1453     41.9128E-03     39.3174E-03
             731            1453     41.9128E-03     39.3174E-03
             731            1454     33.9979E-03     36.8498E-03
             772            1454     33.9979E-03     36.8498E-03
             732            1454     33.9979E-03     36.8498E-03
             771            1454     33.9979E-03     36.8498E-03
             732            1455     31.5525E-03     31.3014E-03
             772            1455     31.5525E-03     31.3014E-03
             773            1455     31.5525E-03     31.3014E-03
             733            1455     31.5525E-03     31.3014E-03
             773            1456     27.5986E-03     28.1724E-03
             774            1456     27.5986E-03     28.1724E-03
             734            1456     27.5986E-03     28.1724E-03
             733            1456     27.5986E-03     28.1724E-03
             734            1457     23.9275E-03     24.4963E-03
             775            1457     23.9275E-03     24.4963E-03
             735            1457     23.9275E-03     24.4963E-03
             774            1457     23.9275E-03     24.4963E-03
             735            1458     20.5306E-03     20.7930E-03
             776            1458     20.5306E-03     20.7930E-03
             736            1458     20.5306E-03     20.7930E-03
             775            1458     20.5306E-03     20.7930E-03
             777            1459     16.8582E-03     17.3143E-03
             776            1459     16.8582E-03     17.3143E-03
             737            1459     16.8582E-03     17.3143E-03
             736            1459     16.8582E-03     17.3143E-03
             737            1460     13.6287E-03     13.6883E-03
             777            1460     13.6287E-03     13.6883E-03
             738            1460     13.6287E-03     13.6883E-03
             778            1460     13.6287E-03     13.6883E-03
             779            1461     10.7292E-03     10.3036E-03
             778            1461     10.7292E-03     10.3036E-03
             738            1461     10.7292E-03     10.3036E-03
             739            1461     10.7292E-03     10.3036E-03
             779            1462     11.1198E-03     13.7015E-03
             780            1462     11.1198E-03     13.7015E-03
             739            1462     11.1198E-03     13.7015E-03
             740            1462     11.1198E-03     13.7015E-03
             741            1463     14.1915E-03     14.5504E-03
             780            1463     14.1915E-03     14.5504E-03
             740            1463     14.1915E-03     14.5504E-03
             781            1463     14.1915E-03     14.5504E-03
             781            1464     10.9151E-03     9.47483E-03
             782            1464     10.9151E-03     9.47483E-03
             742            1464     10.9151E-03     9.47483E-03
             741            1464     10.9151E-03     9.47483E-03
             782            1465     5.85049E-03     6.79352E-03
             743            1465     5.85049E-03     6.79352E-03
             742            1465     5.85049E-03     6.79352E-03
             783            1465     5.85049E-03     6.79352E-03
             743            1466     4.90597E-03     5.91915E-03
             744            1466     4.90597E-03     5.91915E-03
             783            1466     4.90597E-03     5.91915E-03
             784            1466     4.90597E-03     5.91915E-03
            1761            2351     948.820E-06     932.450E-06
            1757            2351     948.820E-06     932.450E-06
            1762            2351     948.820E-06     932.450E-06
            1758            2351     948.820E-06     932.450E-06
            1759            2352     954.547E-06     940.972E-06
            1758            2352     954.547E-06     940.972E-06
            1763            2352     954.547E-06     940.972E-06
            1762            2352     954.547E-06     940.972E-06
            1760            2353     942.261E-06     936.124E-06
            1759            2353     942.261E-06     936.124E-06
            1763            2353     942.261E-06     936.124E-06
            1764            2353     942.261E-06     936.124E-06
            1765            2354     875.229E-06     865.219E-06
            1762            2354     875.229E-06     865.219E-06
            1766            2354     875.229E-06     865.219E-06
            1761            2354     875.229E-06     865.219E-06
            1766            2355     881.947E-06     866.775E-06
            1767            2355     881.947E-06     866.775E-06
            1762            2355     881.947E-06     866.775E-06
            1763            2355     881.947E-06     866.775E-06
            1767            2356     863.268E-06     858.550E-06
            1768            2356     863.268E-06     858.550E-06
            1763            2356     863.268E-06     858.550E-06
            1764            2356     863.268E-06     858.550E-06
            1769            2357     766.296E-06     761.861E-06
            1765            2357     766.296E-06     761.861E-06
            1770            2357     766.296E-06     761.861E-06
            1766            2357     766.296E-06     761.861E-06
            1766            2358     765.812E-06     744.024E-06
            1770            2358     765.812E-06     744.024E-06
            1771            2358     765.812E-06     744.024E-06
            1767            2358     765.812E-06     744.024E-06
            1771            2359     737.197E-06     735.070E-06
            1767            2359     737.197E-06     735.070E-06
            1772            2359     737.197E-06     735.070E-06
            1768            2359     737.197E-06     735.070E-06
            1773            2360     622.556E-06     628.048E-06
            1769            2360     622.556E-06     628.048E-06
            1770            2360     622.556E-06     628.048E-06
            1774            2360     622.556E-06     628.048E-06
            1770            2361     615.380E-06     594.206E-06
            1775            2361     615.380E-06     594.206E-06
            1774            2361     615.380E-06     594.206E-06
            1771            2361     615.380E-06     594.206E-06
            1772            2362     566.707E-06     578.147E-06
            1775            2362     566.707E-06     578.147E-06
            1771            2362     566.707E-06     578.147E-06
            1776            2362     566.707E-06     578.147E-06
            1773            2363     474.731E-06     486.953E-06
            1777            2363     474.731E-06     486.953E-06
            1774            2363     474.731E-06     486.953E-06
            1778            2363     474.731E-06     486.953E-06
            1775            2364     454.108E-06     413.190E-06
            1774            2364     454.108E-06     413.190E-06
            1779            2364     454.108E-06     413.190E-06
            1778            2364     454.108E-06     413.190E-06
            1779            2365     361.985E-06     389.345E-06
            1775            2365     361.985E-06     389.345E-06
            1776            2365     361.985E-06     389.345E-06
            1780            2365     361.985E-06     389.345E-06
            1782            2366     520.211E-06     534.714E-06
            1781            2366     520.211E-06     534.714E-06
            1777            2366     520.211E-06     534.714E-06
            1778            2366     520.211E-06     534.714E-06
            1778            2367     400.847E-06     341.408E-06
            1782            2367     400.847E-06     341.408E-06
            1783            2367     400.847E-06     341.408E-06
            1779            2367     400.847E-06     341.408E-06
            1780            2368     245.695E-06     324.588E-06
            1779            2368     245.695E-06     324.588E-06
            1783            2368     245.695E-06     324.588E-06
            1784            2368     245.695E-06     324.588E-06
            2349            2836     106.949E-03     107.855E-03
            2344            2836     106.949E-03     107.855E-03
            2343            2836     106.949E-03     107.855E-03
            2350            2836     106.949E-03     107.855E-03
            2351            2837     108.111E-03     110.095E-03
            2344            2837     108.111E-03     110.095E-03
            2350            2837     108.111E-03     110.095E-03
            2345            2837     108.111E-03     110.095E-03
            2351            2838     108.449E-03     110.352E-03
            2345            2838     108.449E-03     110.352E-03
            2352            2838     108.449E-03     110.352E-03
            2346            2838     108.449E-03     110.352E-03
            2347            2839     111.500E-03     114.206E-03
            2346            2839     111.500E-03     114.206E-03
            2353            2839     111.500E-03     114.206E-03
            2352            2839     111.500E-03     114.206E-03
            2353            2840     98.0698E-03     99.6073E-03
            2347            2840     98.0698E-03     99.6073E-03
            2354            2840     98.0698E-03     99.6073E-03
            2348            2840     98.0698E-03     99.6073E-03
            2356            2841     127.632E-03     127.552E-03
            2355            2841     127.632E-03     127.552E-03
            2349            2841     127.632E-03     127.552E-03
            2350            2841     127.632E-03     127.552E-03
            2351            2842     129.813E-03     132.328E-03
            2356            2842     129.813E-03     132.328E-03
            2357            2842     129.813E-03     132.328E-03
            2350            2842     129.813E-03     132.328E-03
            2351            2843     133.398E-03     132.497E-03
            2352            2843     133.398E-03     132.497E-03
            2357            2843     133.398E-03     132.497E-03
            2358            2843     133.398E-03     132.497E-03
            2353            2844     135.941E-03     138.578E-03
            2358            2844     135.941E-03     138.578E-03
            2359            2844     135.941E-03     138.578E-03
            2352            2844     135.941E-03     138.578E-03
            2359            2845     114.717E-03     120.442E-03
            2360            2845     114.717E-03     120.442E-03
            2354            2845     114.717E-03     120.442E-03
            2353            2845     114.717E-03     120.442E-03
            2361            2846     149.868E-03     147.738E-03
            2355            2846     149.868E-03     147.738E-03
            2356            2846     149.868E-03     147.738E-03
            2362            2846     149.868E-03     147.738E-03
            2362            2847     152.223E-03     153.854E-03
            2357            2847     152.223E-03     153.854E-03
            2356            2847     152.223E-03     153.854E-03
            2363            2847     152.223E-03     153.854E-03
            2358            2848     155.359E-03     154.546E-03
            2357            2848     155.359E-03     154.546E-03
            2363            2848     155.359E-03     154.546E-03
            2364            2848     155.359E-03     154.546E-03
            2364            2849     155.044E-03     158.111E-03
            2365            2849     155.044E-03     158.111E-03
            2359            2849     155.044E-03     158.111E-03
            2358            2849     155.044E-03     158.111E-03
            2360            2850     129.670E-03     136.588E-03
            2365            2850     129.670E-03     136.588E-03
            2359            2850     129.670E-03     136.588E-03
            2366            2850     129.670E-03     136.588E-03
            2367            2851     168.628E-03     163.869E-03
            2368            2851     168.628E-03     163.869E-03
            2362            2851     168.628E-03     163.869E-03
            2361            2851     168.628E-03     163.869E-03
            2368            2852     170.809E-03     170.801E-03
            2363            2852     170.809E-03     170.801E-03
            2369            2852     170.809E-03     170.801E-03
            2362            2852     170.809E-03     170.801E-03
            2370            2853     172.330E-03     172.193E-03
            2363            2853     172.330E-03     172.193E-03
            2364            2853     172.330E-03     172.193E-03
            2369            2853     172.330E-03     172.193E-03
            2371            2854     171.177E-03     175.282E-03
            2365            2854     171.177E-03     175.282E-03
            2370            2854     171.177E-03     175.282E-03
            2364            2854     171.177E-03     175.282E-03
            2365            2855     142.535E-03     151.009E-03
            2371            2855     142.535E-03     151.009E-03
            2366            2855     142.535E-03     151.009E-03
            2372            2855     142.535E-03     151.009E-03
            2374            2856     177.576E-03     174.754E-03
            2367            2856     177.576E-03     174.754E-03
            2373            2856     177.576E-03     174.754E-03
            2368            2856     177.576E-03     174.754E-03
            2374            2857     180.945E-03     182.405E-03
            2375            2857     180.945E-03     182.405E-03
            2368            2857     180.945E-03     182.405E-03
            2369            2857     180.945E-03     182.405E-03
            2369            2858     185.758E-03     186.295E-03
            2375            2858     185.758E-03     186.295E-03
            2376            2858     185.758E-03     186.295E-03
            2370            2858     185.758E-03     186.295E-03
            2371            2859     188.644E-03     190.017E-03
            2370            2859     188.644E-03     190.017E-03
            2376            2859     188.644E-03     190.017E-03
            2377            2859     188.644E-03     190.017E-03
            2377            2860     154.664E-03     162.046E-03
            2372            2860     154.664E-03     162.046E-03
            2378            2860     154.664E-03     162.046E-03
            2371            2860     154.664E-03     162.046E-03
            2373            2861     175.872E-03     179.229E-03
            2379            2861     175.872E-03     179.229E-03
            2380            2861     175.872E-03     179.229E-03
            2374            2861     175.872E-03     179.229E-03
            2375            2862     184.043E-03     186.503E-03
            2381            2862     184.043E-03     186.503E-03
            2374            2862     184.043E-03     186.503E-03
            2380            2862     184.043E-03     186.503E-03
            2382            2863     194.723E-03     194.015E-03
            2381            2863     194.723E-03     194.015E-03
            2376            2863     194.723E-03     194.015E-03
            2375            2863     194.723E-03     194.015E-03
            2383            2864     202.743E-03     199.053E-03
            2377            2864     202.743E-03     199.053E-03
            2382            2864     202.743E-03     199.053E-03
            2376            2864     202.743E-03     199.053E-03
            2377            2865     163.154E-03     166.128E-03
            2383            2865     163.154E-03     166.128E-03
            2378            2865     163.154E-03     166.128E-03
            2384            2865     163.154E-03     166.128E-03
            3502            3869     40.8349E-03     39.4056E-03
            3551            3869     40.8349E-03     39.4056E-03
            3552            3869     40.8349E-03     39.4056E-03
            3501            3869     40.8349E-03     39.4056E-03
            3502            3870     42.7486E-03     40.3274E-03
            3553            3870     42.7486E-03     40.3274E-03
            3552            3870     42.7486E-03     40.3274E-03
            3503            3870     42.7486E-03     40.3274E-03
            3503            3871     39.0259E-03     41.6783E-03
            3554            3871     39.0259E-03     41.6783E-03
            3504            3871     39.0259E-03     41.6783E-03
            3553            3871     39.0259E-03     41.6783E-03
            3504            3872     39.4988E-03     39.6796E-03
            3554            3872     39.4988E-03     39.6796E-03
            3555            3872     39.4988E-03     39.6796E-03
            3505            3872     39.4988E-03     39.6796E-03
            3555            3873     38.8853E-03     39.1559E-03
            3556            3873     38.8853E-03     39.1559E-03
            3506            3873     38.8853E-03     39.1559E-03
            3505            3873     38.8853E-03     39.1559E-03
            3557            3874     37.6026E-03     37.8208E-03
            3507            3874     37.6026E-03     37.8208E-03
            3506            3874     37.6026E-03     37.8208E-03
            3556            3874     37.6026E-03     37.8208E-03
            3558            3875     35.8516E-03     37.2720E-03
            3507            3875     35.8516E-03     37.2720E-03
            3557            3875     35.8516E-03     37.2720E-03
            3508            3875     35.8516E-03     37.2720E-03
            3509            3876     36.4448E-03     34.6291E-03
            3559            3876     36.4448E-03     34.6291E-03
            3558            3876     36.4448E-03     34.6291E-03
            3508            3876     36.4448E-03     34.6291E-03
            3510            3877     33.7667E-03     32.4806E-03
            3559            3877     33.7667E-03     32.4806E-03
            3560            3877     33.7667E-03     32.4806E-03
            3509            3877     33.7667E-03     32.4806E-03
            3511            3878     29.7888E-03     34.6224E-03
            3561            3878     29.7888E-03     34.6224E-03
            3510            3878     29.7888E-03     34.6224E-03
            3560            3878     29.7888E-03     34.6224E-03
            3511            3879     35.2039E-03     33.9397E-03
            3561            3879     35.2039E-03     33.9397E-03
            3562            3879     35.2039E-03     33.9397E-03
            3512            3879     35.2039E-03     33.9397E-03
            3562            3880     36.5748E-03     34.5644E-03
            3563            3880     36.5748E-03     34.5644E-03
            3513            3880     36.5748E-03     34.5644E-03
            3512            3880     36.5748E-03     34.5644E-03
            3513            3881     33.2397E-03     35.4717E-03
            3563            3881     33.2397E-03     35.4717E-03
            3564            3881     33.2397E-03     35.4717E-03
            3514            3881     33.2397E-03     35.4717E-03
            3514            3882     33.5756E-03     33.4940E-03
            3565            3882     33.5756E-03     33.4940E-03
            3515            3882     33.5756E-03     33.4940E-03
            3564            3882     33.5756E-03     33.4940E-03
            3516            3883     32.7523E-03     33.0396E-03
            3565            3883     32.7523E-03     33.0396E-03
            3515            3883     32.7523E-03     33.0396E-03
            3566            3883     32.7523E-03     33.0396E-03
            3516            3884     31.6872E-03     31.9911E-03
            3517            3884     31.6872E-03     31.9911E-03
            3567            3884     31.6872E-03     31.9911E-03
            3566            3884     31.6872E-03     31.9911E-03
            3568            3885     30.7461E-03     30.4615E-03
            3517            3885     30.7461E-03     30.4615E-03
            3518            3885     30.7461E-03     30.4615E-03
            3567            3885     30.7461E-03     30.4615E-03
            3518            3886     29.0906E-03     29.8517E-03
            3569            3886     29.0906E-03     29.8517E-03
            3568            3886     29.0906E-03     29.8517E-03
            3519            3886     29.0906E-03     29.8517E-03
            3570            3887     29.0522E-03     27.6554E-03
            3519            3887     29.0522E-03     27.6554E-03
            3520            3887     29.0522E-03     27.6554E-03
            3569            3887     29.0522E-03     27.6554E-03
            3520            3888     26.9929E-03     25.9594E-03
            3571            3888     26.9929E-03     25.9594E-03
            3570            3888     26.9929E-03     25.9594E-03
            3521            3888     26.9929E-03     25.9594E-03
            3522            3889     24.5715E-03     27.8813E-03
            3571            3889     24.5715E-03     27.8813E-03
            3521            3889     24.5715E-03     27.8813E-03
            3572            3889     24.5715E-03     27.8813E-03
            3572            3890     28.7889E-03     27.8237E-03
            3523            3890     28.7889E-03     27.8237E-03
            3522            3890     28.7889E-03     27.8237E-03
            3573            3890     28.7889E-03     27.8237E-03
            3574            3891     29.5449E-03     28.1138E-03
            3573            3891     29.5449E-03     28.1138E-03
            3523            3891     29.5449E-03     28.1138E-03
            3524            3891     29.5449E-03     28.1138E-03
            3524            3892     26.7725E-03     28.4739E-03
            3574            3892     26.7725E-03     28.4739E-03
            3575            3892     26.7725E-03     28.4739E-03
            3525            3892     26.7725E-03     28.4739E-03
            3525            3893     26.7874E-03     26.7515E-03
            3526            3893     26.7874E-03     26.7515E-03
            3576            3893     26.7874E-03     26.7515E-03
            3575            3893     26.7874E-03     26.7515E-03
            3526            3894     25.9665E-03     26.1371E-03
            3576            3894     25.9665E-03     26.1371E-03
            3527            3894     25.9665E-03     26.1371E-03
            3577            3894     25.9665E-03     26.1371E-03
            3528            3895     24.9399E-03     25.1223E-03
            3578            3895     24.9399E-03     25.1223E-03
            3527            3895     24.9399E-03     25.1223E-03
            3577            3895     24.9399E-03     25.1223E-03
            3528            3896     24.0712E-03     23.8290E-03
            3529            3896     24.0712E-03     23.8290E-03
            3578            3896     24.0712E-03     23.8290E-03
            3579            3896     24.0712E-03     23.8290E-03
            3529            3897     22.8396E-03     23.0416E-03
            3530            3897     22.8396E-03     23.0416E-03
            3580            3897     22.8396E-03     23.0416E-03
            3579            3897     22.8396E-03     23.0416E-03
            3530            3898     22.3097E-03     21.5007E-03
            3531            3898     22.3097E-03     21.5007E-03
            3580            3898     22.3097E-03     21.5007E-03
            3581            3898     22.3097E-03     21.5007E-03
            3532            3899     20.9650E-03     20.3250E-03
            3582            3899     20.9650E-03     20.3250E-03
            3581            3899     20.9650E-03     20.3250E-03
            3531            3899     20.9650E-03     20.3250E-03
            3532            3900     20.1837E-03     21.8689E-03
            3533            3900     20.1837E-03     21.8689E-03
            3582            3900     20.1837E-03     21.8689E-03
            3583            3900     20.1837E-03     21.8689E-03
            3584            3901     23.0491E-03     22.4083E-03
            3534            3901     23.0491E-03     22.4083E-03
            3583            3901     23.0491E-03     22.4083E-03
            3533            3901     23.0491E-03     22.4083E-03
            3534            3902     23.2307E-03     22.3792E-03
            3535            3902     23.2307E-03     22.3792E-03
            3584            3902     23.2307E-03     22.3792E-03
            3585            3902     23.2307E-03     22.3792E-03
            3586            3903     21.2377E-03     22.2653E-03
            3535            3903     21.2377E-03     22.2653E-03
            3536            3903     21.2377E-03     22.2653E-03
            3585            3903     21.2377E-03     22.2653E-03
            3586            3904     21.0028E-03     20.9752E-03
            3587            3904     21.0028E-03     20.9752E-03
            3537            3904     21.0028E-03     20.9752E-03
            3536            3904     21.0028E-03     20.9752E-03
            3587            3905     20.3105E-03     20.3538E-03
            3538            3905     20.3105E-03     20.3538E-03
            3588            3905     20.3105E-03     20.3538E-03
            3537            3905     20.3105E-03     20.3538E-03
            3538            3906     19.5106E-03     19.5712E-03
            3589            3906     19.5106E-03     19.5712E-03
            3588            3906     19.5106E-03     19.5712E-03
            3539            3906     19.5106E-03     19.5712E-03
            3590            3907     18.8972E-03     18.7244E-03
            3540            3907     18.8972E-03     18.7244E-03
            3589            3907     18.8972E-03     18.7244E-03
            3539            3907     18.8972E-03     18.7244E-03
            3591            3908     18.2487E-03     18.0708E-03
            3541            3908     18.2487E-03     18.0708E-03
            3540            3908     18.2487E-03     18.0708E-03
            3590            3908     18.2487E-03     18.0708E-03
            3541            3909     17.6728E-03     17.3861E-03
            3542            3909     17.6728E-03     17.3861E-03
            3592            3909     17.6728E-03     17.3861E-03
            3591            3909     17.6728E-03     17.3861E-03
            3593            3910     17.1534E-03     16.8829E-03
            3592            3910     17.1534E-03     16.8829E-03
            3543            3910     17.1534E-03     16.8829E-03
            3542            3910     17.1534E-03     16.8829E-03
            3543            3911     17.5039E-03     17.7377E-03
            3544            3911     17.5039E-03     17.7377E-03
            3594            3911     17.5039E-03     17.7377E-03
            3593            3911     17.5039E-03     17.7377E-03
            3594            3912     18.7150E-03     18.4702E-03
            3595            3912     18.7150E-03     18.4702E-03
            3544            3912     18.7150E-03     18.4702E-03
            3545            3912     18.7150E-03     18.4702E-03
            3546            3913     18.6328E-03     18.3355E-03
            3595            3913     18.6328E-03     18.3355E-03
            3596            3913     18.6328E-03     18.3355E-03
            3545            3913     18.6328E-03     18.3355E-03
            3597            3914     17.9564E-03     18.1204E-03
            3547            3914     17.9564E-03     18.1204E-03
            3546            3914     17.9564E-03     18.1204E-03
            3596            3914     17.9564E-03     18.1204E-03
            3548            3915     17.8563E-03     17.7485E-03
            3547            3915     17.8563E-03     17.7485E-03
            3597            3915     17.8563E-03     17.7485E-03
            3598            3915     17.8563E-03     17.7485E-03
            3599            3916     17.7549E-03     17.6412E-03
            3548            3916     17.7549E-03     17.6412E-03
            3549            3916     17.7549E-03     17.6412E-03
            3598            3916     17.7549E-03     17.6412E-03
            3550            3917     17.6323E-03     17.5256E-03
            3600            3917     17.6323E-03     17.5256E-03
            3549            3917     17.6323E-03     17.5256E-03
            3599            3917     17.6323E-03     17.5256E-03
            3551            3918     57.4574E-03     55.3785E-03
            3552            3918     57.4574E-03     55.3785E-03
            3601            3918     57.4574E-03     55.3785E-03
            3602            3918     57.4574E-03     55.3785E-03
            3552            3919     60.4095E-03     56.3969E-03
            3602            3919     60.4095E-03     56.3969E-03
            3603            3919     60.4095E-03     56.3969E-03
            3553            3919     60.4095E-03     56.3969E-03
            3604            3920     55.0832E-03     58.3990E-03
            3554            3920     55.0832E-03     58.3990E-03
            3603            3920     55.0832E-03     58.3990E-03
            3553            3920     55.0832E-03     58.3990E-03
            3604            3921     55.5573E-03     55.2354E-03
            3605            3921     55.5573E-03     55.2354E-03
            3554            3921     55.5573E-03     55.2354E-03
            3555            3921     55.5573E-03     55.2354E-03
            3556            3922     54.6856E-03     54.4510E-03
            3605            3922     54.6856E-03     54.4510E-03
            3606            3922     54.6856E-03     54.4510E-03
            3555            3922     54.6856E-03     54.4510E-03
            3557            3923     52.8422E-03     52.8579E-03
            3556            3923     52.8422E-03     52.8579E-03
            3607            3923     52.8422E-03     52.8579E-03
            3606            3923     52.8422E-03     52.8579E-03
            3608            3924     50.3184E-03     52.6924E-03
            3558            3924     50.3184E-03     52.6924E-03
            3607            3924     50.3184E-03     52.6924E-03
            3557            3924     50.3184E-03     52.6924E-03
            3559            3925     51.6960E-03     49.0308E-03
            3608            3925     51.6960E-03     49.0308E-03
            3609            3925     51.6960E-03     49.0308E-03
            3558            3925     51.6960E-03     49.0308E-03
            3609            3926     47.7620E-03     45.7601E-03
            3560            3926     47.7620E-03     45.7601E-03
            3610            3926     47.7620E-03     45.7601E-03
            3559            3926     47.7620E-03     45.7601E-03
            3561            3927     41.2792E-03     48.9359E-03
            3610            3927     41.2792E-03     48.9359E-03
            3560            3927     41.2792E-03     48.9359E-03
            3611            3927     41.2792E-03     48.9359E-03
            3562            3928     49.0582E-03     47.2603E-03
            3612            3928     49.0582E-03     47.2603E-03
            3611            3928     49.0582E-03     47.2603E-03
            3561            3928     49.0582E-03     47.2603E-03
            3562            3929     51.2561E-03     47.7152E-03
            3612            3929     51.2561E-03     47.7152E-03
            3563            3929     51.2561E-03     47.7152E-03
            3613            3929     51.2561E-03     47.7152E-03
            3563            3930     46.3130E-03     49.0836E-03
            3613            3930     46.3130E-03     49.0836E-03
            3614            3930     46.3130E-03     49.0836E-03
            3564            3930     46.3130E-03     49.0836E-03
            3564            3931     46.5414E-03     45.8299E-03
            3615            3931     46.5414E-03     45.8299E-03
            3614            3931     46.5414E-03     45.8299E-03
            3565            3931     46.5414E-03     45.8299E-03
            3565            3932     45.1389E-03     45.0530E-03
            3615            3932     45.1389E-03     45.0530E-03
            3616            3932     45.1389E-03     45.0530E-03
            3566            3932     45.1389E-03     45.0530E-03
            3566            3933     43.5159E-03     43.7241E-03
            3617            3933     43.5159E-03     43.7241E-03
            3567            3933     43.5159E-03     43.7241E-03
            3616            3933     43.5159E-03     43.7241E-03
            3618            3934     42.1756E-03     41.7850E-03
            3568            3934     42.1756E-03     41.7850E-03
            3617            3934     42.1756E-03     41.7850E-03
            3567            3934     42.1756E-03     41.7850E-03
            3569            3935     39.6626E-03     41.4118E-03
            3619            3935     39.6626E-03     41.4118E-03
            3618            3935     39.6626E-03     41.4118E-03
            3568            3935     39.6626E-03     41.4118E-03
            3619            3936     40.1288E-03     38.2446E-03
            3620            3936     40.1288E-03     38.2446E-03
            3569            3936     40.1288E-03     38.2446E-03
            3570            3936     40.1288E-03     38.2446E-03
            3620            3937     36.9929E-03     35.4158E-03
            3570            3937     36.9929E-03     35.4158E-03
            3621            3937     36.9929E-03     35.4158E-03
            3571            3937     36.9929E-03     35.4158E-03
            3572            3938     32.4611E-03     38.1321E-03
            3621            3938     32.4611E-03     38.1321E-03
            3571            3938     32.4611E-03     38.1321E-03
            3622            3938     32.4611E-03     38.1321E-03
            3573            3939     38.5422E-03     37.1999E-03
            3572            3939     38.5422E-03     37.1999E-03
            3623            3939     38.5422E-03     37.1999E-03
            3622            3939     38.5422E-03     37.1999E-03
            3574            3940     39.8788E-03     37.0945E-03
            3573            3940     39.8788E-03     37.0945E-03
            3623            3940     39.8788E-03     37.0945E-03
            3624            3940     39.8788E-03     37.0945E-03
            3625            3941     35.5931E-03     37.6876E-03
            3574            3941     35.5931E-03     37.6876E-03
            3575            3941     35.5931E-03     37.6876E-03
            3624            3941     35.5931E-03     37.6876E-03
            3575            3942     35.3207E-03     34.7556E-03
            3576            3942     35.3207E-03     34.7556E-03
            3625            3942     35.3207E-03     34.7556E-03
            3626            3942     35.3207E-03     34.7556E-03
            3627            3943     33.8342E-03     33.7245E-03
            3576            3943     33.8342E-03     33.7245E-03
            3577            3943     33.8342E-03     33.7245E-03
            3626            3943     33.8342E-03     33.7245E-03
            3578            3944     32.1097E-03     32.3228E-03
            3577            3944     32.1097E-03     32.3228E-03
            3627            3944     32.1097E-03     32.3228E-03
            3628            3944     32.1097E-03     32.3228E-03
            3579            3945     30.6894E-03     30.4949E-03
            3578            3945     30.6894E-03     30.4949E-03
            3629            3945     30.6894E-03     30.4949E-03
            3628            3945     30.6894E-03     30.4949E-03
            3580            3946     28.5698E-03     29.5662E-03
            3579            3946     28.5698E-03     29.5662E-03
            3630            3946     28.5698E-03     29.5662E-03
            3629            3946     28.5698E-03     29.5662E-03
            3581            3947     28.0651E-03     27.1078E-03
            3580            3947     28.0651E-03     27.1078E-03
            3631            3947     28.0651E-03     27.1078E-03
            3630            3947     28.0651E-03     27.1078E-03
            3582            3948     25.8183E-03     24.8022E-03
            3631            3948     25.8183E-03     24.8022E-03
            3632            3948     25.8183E-03     24.8022E-03
            3581            3948     25.8183E-03     24.8022E-03
            3583            3949     23.5520E-03     26.9133E-03
            3633            3949     23.5520E-03     26.9133E-03
            3582            3949     23.5520E-03     26.9133E-03
            3632            3949     23.5520E-03     26.9133E-03
            3583            3950     27.6729E-03     26.8494E-03
            3633            3950     27.6729E-03     26.8494E-03
            3634            3950     27.6729E-03     26.8494E-03
            3584            3950     27.6729E-03     26.8494E-03
            3634            3951     28.1028E-03     26.2065E-03
            3584            3951     28.1028E-03     26.2065E-03
            3635            3951     28.1028E-03     26.2065E-03
            3585            3951     28.1028E-03     26.2065E-03
            3635            3952     24.7331E-03     26.0274E-03
            3586            3952     24.7331E-03     26.0274E-03
            3585            3952     24.7331E-03     26.0274E-03
            3636            3952     24.7331E-03     26.0274E-03
            3587            3953     24.0210E-03     23.6493E-03
            3636            3953     24.0210E-03     23.6493E-03
            3637            3953     24.0210E-03     23.6493E-03
            3586            3953     24.0210E-03     23.6493E-03
            3587            3954     22.6123E-03     22.5132E-03
            3637            3954     22.6123E-03     22.5132E-03
            3588            3954     22.6123E-03     22.5132E-03
            3638            3954     22.6123E-03     22.5132E-03
            3588            3955     21.0143E-03     21.2322E-03
            3589            3955     21.0143E-03     21.2322E-03
            3639            3955     21.0143E-03     21.2322E-03
            3638            3955     21.0143E-03     21.2322E-03
            3590            3956     19.7515E-03     19.7640E-03
            3639            3956     19.7515E-03     19.7640E-03
            3589            3956     19.7515E-03     19.7640E-03
            3640            3956     19.7515E-03     19.7640E-03
            3591            3957     18.3307E-03     18.5619E-03
            3640            3957     18.3307E-03     18.5619E-03
            3641            3957     18.3307E-03     18.5619E-03
            3590            3957     18.3307E-03     18.5619E-03
            3641            3958     17.2419E-03     17.1822E-03
            3591            3958     17.2419E-03     17.1822E-03
            3642            3958     17.2419E-03     17.1822E-03
            3592            3958     17.2419E-03     17.1822E-03
            3642            3959     16.2035E-03     15.8602E-03
            3593            3959     16.2035E-03     15.8602E-03
            3592            3959     16.2035E-03     15.8602E-03
            3643            3959     16.2035E-03     15.8602E-03
            3593            3960     16.0317E-03     16.8082E-03
            3594            3960     16.0317E-03     16.8082E-03
            3644            3960     16.0317E-03     16.8082E-03
            3643            3960     16.0317E-03     16.8082E-03
            3644            3961     17.4928E-03     17.3540E-03
            3645            3961     17.4928E-03     17.3540E-03
            3595            3961     17.4928E-03     17.3540E-03
            3594            3961     17.4928E-03     17.3540E-03
            3645            3962     17.2847E-03     16.7176E-03
            3646            3962     17.2847E-03     16.7176E-03
            3595            3962     17.2847E-03     16.7176E-03
            3596            3962     17.2847E-03     16.7176E-03
            3597            3963     15.8958E-03     16.2597E-03
            3596            3963     15.8958E-03     16.2597E-03
            3647            3963     15.8958E-03     16.2597E-03
            3646            3963     15.8958E-03     16.2597E-03
            3648            3964     15.4928E-03     15.3753E-03
            3597            3964     15.4928E-03     15.3753E-03
            3647            3964     15.4928E-03     15.3753E-03
            3598            3964     15.4928E-03     15.3753E-03
            3649            3965     15.1846E-03     15.0937E-03
            3599            3965     15.1846E-03     15.0937E-03
            3598            3965     15.1846E-03     15.0937E-03
            3648            3965     15.1846E-03     15.0937E-03
            3650            3966     14.9620E-03     14.9181E-03
            3649            3966     14.9620E-03     14.9181E-03
            3599            3966     14.9620E-03     14.9181E-03
            3600            3966     14.9620E-03     14.9181E-03
            3652            3967     73.0575E-03     70.7808E-03
            3601            3967     73.0575E-03     70.7808E-03
            3602            3967     73.0575E-03     70.7808E-03
            3651            3967     73.0575E-03     70.7808E-03
            3653            3968     76.4807E-03     70.6843E-03
            3652            3968     76.4807E-03     70.6843E-03
            3602            3968     76.4807E-03     70.6843E-03
            3603            3968     76.4807E-03     70.6843E-03
            3654            3969     68.6027E-03     72.3341E-03
            3653            3969     68.6027E-03     72.3341E-03
            3603            3969     68.6027E-03     72.3341E-03
            3604            3969     68.6027E-03     72.3341E-03
            3655            3970     68.6346E-03     67.7006E-03
            3604            3970     68.6346E-03     67.7006E-03
            3605            3970     68.6346E-03     67.7006E-03
            3654            3970     68.6346E-03     67.7006E-03
            3656            3971     67.4863E-03     66.6191E-03
            3655            3971     67.4863E-03     66.6191E-03
            3605            3971     67.4863E-03     66.6191E-03
            3606            3971     67.4863E-03     66.6191E-03
            3657            3972     65.4957E-03     65.0239E-03
            3656            3972     65.4957E-03     65.0239E-03
            3606            3972     65.4957E-03     65.0239E-03
            3607            3972     65.4957E-03     65.0239E-03
            3658            3973     62.9356E-03     65.8756E-03
            3657            3973     62.9356E-03     65.8756E-03
            3607            3973     62.9356E-03     65.8756E-03
            3608            3973     62.9356E-03     65.8756E-03
            3659            3974     66.0798E-03     62.2643E-03
            3608            3974     66.0798E-03     62.2643E-03
            3609            3974     66.0798E-03     62.2643E-03
            3658            3974     66.0798E-03     62.2643E-03
            3660            3975     61.4517E-03     59.2734E-03
            3659            3975     61.4517E-03     59.2734E-03
            3609            3975     61.4517E-03     59.2734E-03
            3610            3975     61.4517E-03     59.2734E-03
            3660            3976     52.3339E-03     63.8294E-03
            3610            3976     52.3339E-03     63.8294E-03
            3611            3976     52.3339E-03     63.8294E-03
            3661            3976     52.3339E-03     63.8294E-03
            3662            3977     62.3548E-03     60.4461E-03
            3661            3977     62.3548E-03     60.4461E-03
            3611            3977     62.3548E-03     60.4461E-03
            3612            3977     62.3548E-03     60.4461E-03
            3663            3978     64.8626E-03     59.8153E-03
            3662            3978     64.8626E-03     59.8153E-03
            3612            3978     64.8626E-03     59.8153E-03
            3613            3978     64.8626E-03     59.8153E-03
            3664            3979     57.5261E-03     60.8317E-03
            3663            3979     57.5261E-03     60.8317E-03
            3613            3979     57.5261E-03     60.8317E-03
            3614            3979     57.5261E-03     60.8317E-03
            3665            3980     57.2450E-03     56.0715E-03
            3614            3980     57.2450E-03     56.0715E-03
            3615            3980     57.2450E-03     56.0715E-03
            3664            3980     57.2450E-03     56.0715E-03
            3666            3981     55.2298E-03     54.9336E-03
            3665            3981     55.2298E-03     54.9336E-03
            3615            3981     55.2298E-03     54.9336E-03
            3616            3981     55.2298E-03     54.9336E-03
            3667            3982     53.3050E-03     53.3650E-03
            3616            3982     53.3050E-03     53.3650E-03
            3617            3982     53.3050E-03     53.3650E-03
            3666            3982     53.3050E-03     53.3650E-03
            3668            3983     51.9994E-03     51.2891E-03
            3667            3983     51.9994E-03     51.2891E-03
            3617            3983     51.9994E-03     51.2891E-03
            3618            3983     51.9994E-03     51.2891E-03
            3669            3984     49.3642E-03     51.7790E-03
            3668            3984     49.3642E-03     51.7790E-03
            3618            3984     49.3642E-03     51.7790E-03
            3619            3984     49.3642E-03     51.7790E-03
            3670            3985     51.1338E-03     48.5550E-03
            3619            3985     51.1338E-03     48.5550E-03
            3620            3985     51.1338E-03     48.5550E-03
            3669            3985     51.1338E-03     48.5550E-03
            3670            3986     47.3911E-03     45.7198E-03
            3620            3986     47.3911E-03     45.7198E-03
            3671            3986     47.3911E-03     45.7198E-03
            3621            3986     47.3911E-03     45.7198E-03
            3622            3987     40.5572E-03     49.3734E-03
            3671            3987     40.5572E-03     49.3734E-03
            3672            3987     40.5572E-03     49.3734E-03
            3621            3987     40.5572E-03     49.3734E-03
            3672            3988     48.2693E-03     46.8428E-03
            3623            3988     48.2693E-03     46.8428E-03
            3622            3988     48.2693E-03     46.8428E-03
            3673            3988     48.2693E-03     46.8428E-03
            3624            3989     49.7852E-03     45.6957E-03
            3674            3989     49.7852E-03     45.6957E-03
            3623            3989     49.7852E-03     45.6957E-03
            3673            3989     49.7852E-03     45.6957E-03
            3625            3990     43.4420E-03     45.9582E-03
            3624            3990     43.4420E-03     45.9582E-03
            3674            3990     43.4420E-03     45.9582E-03
            3675            3990     43.4420E-03     45.9582E-03
            3676            3991     42.6551E-03     41.7297E-03
            3625            3991     42.6551E-03     41.7297E-03
            3675            3991     42.6551E-03     41.7297E-03
            3626            3991     42.6551E-03     41.7297E-03
            3677            3992     40.5624E-03     40.2872E-03
            3676            3992     40.5624E-03     40.2872E-03
            3626            3992     40.5624E-03     40.2872E-03
            3627            3992     40.5624E-03     40.2872E-03
            3628            3993     38.4284E-03     38.5572E-03
            3627            3993     38.4284E-03     38.5572E-03
            3678            3993     38.4284E-03     38.5572E-03
            3677            3993     38.4284E-03     38.5572E-03
            3628            3994     36.8384E-03     36.4602E-03
            3629            3994     36.8384E-03     36.4602E-03
            3678            3994     36.8384E-03     36.4602E-03
            3679            3994     36.8384E-03     36.4602E-03
            3629            3995     34.4024E-03     35.9551E-03
            3680            3995     34.4024E-03     35.9551E-03
            3630            3995     34.4024E-03     35.9551E-03
            3679            3995     34.4024E-03     35.9551E-03
            3631            3996     34.5281E-03     33.2572E-03
            3630            3996     34.5281E-03     33.2572E-03
            3681            3996     34.5281E-03     33.2572E-03
            3680            3996     34.5281E-03     33.2572E-03
            3631            3997     31.6787E-03     30.6000E-03
            3632            3997     31.6787E-03     30.6000E-03
            3681            3997     31.6787E-03     30.6000E-03
            3682            3997     31.6787E-03     30.6000E-03
            3682            3998     27.6225E-03     33.2380E-03
            3683            3998     27.6225E-03     33.2380E-03
            3632            3998     27.6225E-03     33.2380E-03
            3633            3998     27.6225E-03     33.2380E-03
            3684            3999     32.7877E-03     31.9230E-03
            3683            3999     32.7877E-03     31.9230E-03
            3633            3999     32.7877E-03     31.9230E-03
            3634            3999     32.7877E-03     31.9230E-03
            3635            4000     33.2160E-03     30.2821E-03
            3634            4000     33.2160E-03     30.2821E-03
            3684            4000     33.2160E-03     30.2821E-03
            3685            4000     33.2160E-03     30.2821E-03
            3635            4001     28.1478E-03     29.7711E-03
            3686            4001     28.1478E-03     29.7711E-03
            3636            4001     28.1478E-03     29.7711E-03
            3685            4001     28.1478E-03     29.7711E-03
            3637            4002     26.8951E-03     26.2977E-03
            3636            4002     26.8951E-03     26.2977E-03
            3687            4002     26.8951E-03     26.2977E-03
            3686            4002     26.8951E-03     26.2977E-03
            3637            4003     24.8524E-03     24.6391E-03
            3638            4003     24.8524E-03     24.6391E-03
            3687            4003     24.8524E-03     24.6391E-03
            3688            4003     24.8524E-03     24.6391E-03
            3638            4004     22.6542E-03     22.8706E-03
            3689            4004     22.6542E-03     22.8706E-03
            3639            4004     22.6542E-03     22.8706E-03
            3688            4004     22.6542E-03     22.8706E-03
            3689            4005     20.9128E-03     20.9171E-03
            3690            4005     20.9128E-03     20.9171E-03
            3639            4005     20.9128E-03     20.9171E-03
            3640            4005     20.9128E-03     20.9171E-03
            3691            4006     18.8986E-03     19.5095E-03
            3690            4006     18.8986E-03     19.5095E-03
            3641            4006     18.8986E-03     19.5095E-03
            3640            4006     18.8986E-03     19.5095E-03
            3642            4007     17.4791E-03     17.6266E-03
            3641            4007     17.4791E-03     17.6266E-03
            3691            4007     17.4791E-03     17.6266E-03
            3692            4007     17.4791E-03     17.6266E-03
            3693            4008     15.8672E-03     15.5385E-03
            3642            4008     15.8672E-03     15.5385E-03
            3643            4008     15.8672E-03     15.5385E-03
            3692            4008     15.8672E-03     15.5385E-03
            3694            4009     14.6985E-03     16.3740E-03
            3643            4009     14.6985E-03     16.3740E-03
            3644            4009     14.6985E-03     16.3740E-03
            3693            4009     14.6985E-03     16.3740E-03
            3644            4010     16.3477E-03     16.1538E-03
            3695            4010     16.3477E-03     16.1538E-03
            3694            4010     16.3477E-03     16.1538E-03
            3645            4010     16.3477E-03     16.1538E-03
            3646            4011     15.8632E-03     14.6837E-03
            3696            4011     15.8632E-03     14.6837E-03
            3645            4011     15.8632E-03     14.6837E-03
            3695            4011     15.8632E-03     14.6837E-03
            3697            4012     13.3773E-03     14.0204E-03
            3647            4012     13.3773E-03     14.0204E-03
            3696            4012     13.3773E-03     14.0204E-03
            3646            4012     13.3773E-03     14.0204E-03
            3647            4013     12.5107E-03     12.5359E-03
            3698            4013     12.5107E-03     12.5359E-03
            3648            4013     12.5107E-03     12.5359E-03
            3697            4013     12.5107E-03     12.5359E-03
            3648            4014     11.7995E-03     11.8787E-03
            3649            4014     11.7995E-03     11.8787E-03
            3699            4014     11.7995E-03     11.8787E-03
            3698            4014     11.7995E-03     11.8787E-03
            3700            4015     11.4422E-03     11.5638E-03
            3650            4015     11.4422E-03     11.5638E-03
            3649            4015     11.4422E-03     11.5638E-03
            3699            4015     11.4422E-03     11.5638E-03
            3702            4016     86.1931E-03     84.4758E-03
            3651            4016     86.1931E-03     84.4758E-03
            3652            4016     86.1931E-03     84.4758E-03
            3701            4016     86.1931E-03     84.4758E-03
            3702            4017     89.1067E-03     81.9157E-03
            3652            4017     89.1067E-03     81.9157E-03
            3653            4017     89.1067E-03     81.9157E-03
            3703            4017     89.1067E-03     81.9157E-03
            3654            4018     78.1597E-03     83.5550E-03
            3653            4018     78.1597E-03     83.5550E-03
            3703            4018     78.1597E-03     83.5550E-03
            3704            4018     78.1597E-03     83.5550E-03
            3655            4019     77.7946E-03     77.6422E-03
            3654            4019     77.7946E-03     77.6422E-03
            3704            4019     77.7946E-03     77.6422E-03
            3705            4019     77.7946E-03     77.6422E-03
            3655            4020     76.4569E-03     76.4209E-03
            3705            4020     76.4569E-03     76.4209E-03
            3706            4020     76.4569E-03     76.4209E-03
            3656            4020     76.4569E-03     76.4209E-03
            3657            4021     74.3100E-03     74.4966E-03
            3656            4021     74.3100E-03     74.4966E-03
            3706            4021     74.3100E-03     74.4966E-03
            3707            4021     74.3100E-03     74.4966E-03
            3708            4022     71.8984E-03     76.1358E-03
            3658            4022     71.8984E-03     76.1358E-03
            3657            4022     71.8984E-03     76.1358E-03
            3707            4022     71.8984E-03     76.1358E-03
            3658            4023     77.6184E-03     72.6154E-03
            3659            4023     77.6184E-03     72.6154E-03
            3708            4023     77.6184E-03     72.6154E-03
            3709            4023     77.6184E-03     72.6154E-03
            3710            4024     73.2676E-03     71.5470E-03
            3659            4024     73.2676E-03     71.5470E-03
            3660            4024     73.2676E-03     71.5470E-03
            3709            4024     73.2676E-03     71.5470E-03
            3661            4025     61.8489E-03     78.9003E-03
            3710            4025     61.8489E-03     78.9003E-03
            3711            4025     61.8489E-03     78.9003E-03
            3660            4025     61.8489E-03     78.9003E-03
            3661            4026     73.6450E-03     72.2287E-03
            3662            4026     73.6450E-03     72.2287E-03
            3712            4026     73.6450E-03     72.2287E-03
            3711            4026     73.6450E-03     72.2287E-03
            3663            4027     75.6793E-03     69.4740E-03
            3662            4027     75.6793E-03     69.4740E-03
            3713            4027     75.6793E-03     69.4740E-03
            3712            4027     75.6793E-03     69.4740E-03
            3663            4028     65.6389E-03     70.5863E-03
            3713            4028     65.6389E-03     70.5863E-03
            3664            4028     65.6389E-03     70.5863E-03
            3714            4028     65.6389E-03     70.5863E-03
            3714            4029     65.0475E-03     64.5451E-03
            3715            4029     65.0475E-03     64.5451E-03
            3665            4029     65.0475E-03     64.5451E-03
            3664            4029     65.0475E-03     64.5451E-03
            3715            4030     62.5092E-03     63.2144E-03
            3666            4030     62.5092E-03     63.2144E-03
            3665            4030     62.5092E-03     63.2144E-03
            3716            4030     62.5092E-03     63.2144E-03
            3667            4031     60.2886E-03     61.3318E-03
            3716            4031     60.2886E-03     61.3318E-03
            3666            4031     60.2886E-03     61.3318E-03
            3717            4031     60.2886E-03     61.3318E-03
            3668            4032     59.1083E-03     58.7878E-03
            3667            4032     59.1083E-03     58.7878E-03
            3717            4032     59.1083E-03     58.7878E-03
            3718            4032     59.1083E-03     58.7878E-03
            3668            4033     56.4296E-03     59.9639E-03
            3719            4033     56.4296E-03     59.9639E-03
            3669            4033     56.4296E-03     59.9639E-03
            3718            4033     56.4296E-03     59.9639E-03
            3670            4034     60.1935E-03     56.7325E-03
            3719            4034     60.1935E-03     56.7325E-03
            3720            4034     60.1935E-03     56.7325E-03
            3669            4034     60.1935E-03     56.7325E-03
            3671            4035     56.6471E-03     55.3307E-03
            3670            4035     56.6471E-03     55.3307E-03
            3721            4035     56.6471E-03     55.3307E-03
            3720            4035     56.6471E-03     55.3307E-03
            3721            4036     47.7295E-03     60.9748E-03
            3722            4036     47.7295E-03     60.9748E-03
            3672            4036     47.7295E-03     60.9748E-03
            3671            4036     47.7295E-03     60.9748E-03
            3722            4037     56.6899E-03     55.6502E-03
            3723            4037     56.6899E-03     55.6502E-03
            3672            4037     56.6899E-03     55.6502E-03
            3673            4037     56.6899E-03     55.6502E-03
            3674            4038     57.8135E-03     52.7912E-03
            3723            4038     57.8135E-03     52.7912E-03
            3724            4038     57.8135E-03     52.7912E-03
            3673            4038     57.8135E-03     52.7912E-03
            3725            4039     49.2801E-03     53.1397E-03
            3724            4039     49.2801E-03     53.1397E-03
            3675            4039     49.2801E-03     53.1397E-03
            3674            4039     49.2801E-03     53.1397E-03
            3676            4040     48.1694E-03     47.7756E-03
            3725            4040     48.1694E-03     47.7756E-03
            3726            4040     48.1694E-03     47.7756E-03
            3675            4040     48.1694E-03     47.7756E-03
            3727            4041     45.5678E-03     46.0035E-03
            3677            4041     45.5678E-03     46.0035E-03
            3726            4041     45.5678E-03     46.0035E-03
            3676            4041     45.5678E-03     46.0035E-03
            3678            4042     43.0439E-03     43.8647E-03
            3677            4042     43.0439E-03     43.8647E-03
            3728            4042     43.0439E-03     43.8647E-03
            3727            4042     43.0439E-03     43.8647E-03
            3729            4043     41.4226E-03     41.2424E-03
            3679            4043     41.4226E-03     41.2424E-03
            3678            4043     41.4226E-03     41.2424E-03
            3728            4043     41.4226E-03     41.2424E-03
            3680            4044     38.8272E-03     41.0861E-03
            3730            4044     38.8272E-03     41.0861E-03
            3729            4044     38.8272E-03     41.0861E-03
            3679            4044     38.8272E-03     41.0861E-03
            3731            4045     40.2108E-03     38.3572E-03
            3681            4045     40.2108E-03     38.3572E-03
            3730            4045     40.2108E-03     38.3572E-03
            3680            4045     40.2108E-03     38.3572E-03
            3732            4046     37.3789E-03     36.5295E-03
            3681            4046     37.3789E-03     36.5295E-03
            3682            4046     37.3789E-03     36.5295E-03
            3731            4046     37.3789E-03     36.5295E-03
            3683            4047     31.6419E-03     40.3285E-03
            3733            4047     31.6419E-03     40.3285E-03
            3682            4047     31.6419E-03     40.3285E-03
            3732            4047     31.6419E-03     40.3285E-03
            3734            4048     37.5089E-03     36.9081E-03
            3683            4048     37.5089E-03     36.9081E-03
            3733            4048     37.5089E-03     36.9081E-03
            3684            4048     37.5089E-03     36.9081E-03
            3684            4049     37.6328E-03     34.0183E-03
            3734            4049     37.6328E-03     34.0183E-03
            3735            4049     37.6328E-03     34.0183E-03
            3685            4049     37.6328E-03     34.0183E-03
            3686            4050     30.9329E-03     33.5485E-03
            3735            4050     30.9329E-03     33.5485E-03
            3736            4050     30.9329E-03     33.5485E-03
            3685            4050     30.9329E-03     33.5485E-03
            3736            4051     29.3071E-03     29.0459E-03
            3737            4051     29.3071E-03     29.0459E-03
            3686            4051     29.3071E-03     29.0459E-03
            3687            4051     29.3071E-03     29.0459E-03
            3738            4052     26.7186E-03     26.8493E-03
            3688            4052     26.7186E-03     26.8493E-03
            3687            4052     26.7186E-03     26.8493E-03
            3737            4052     26.7186E-03     26.8493E-03
            3689            4053     23.9517E-03     24.5058E-03
            3688            4053     23.9517E-03     24.5058E-03
            3739            4053     23.9517E-03     24.5058E-03
            3738            4053     23.9517E-03     24.5058E-03
            3689            4054     21.9202E-03     21.9013E-03
            3740            4054     21.9202E-03     21.9013E-03
            3739            4054     21.9202E-03     21.9013E-03
            3690            4054     21.9202E-03     21.9013E-03
            3691            4055     19.5080E-03     20.3603E-03
            3740            4055     19.5080E-03     20.3603E-03
            3741            4055     19.5080E-03     20.3603E-03
            3690            4055     19.5080E-03     20.3603E-03
            3742            4056     18.3165E-03     18.3034E-03
            3691            4056     18.3165E-03     18.3034E-03
            3741            4056     18.3165E-03     18.3034E-03
            3692            4056     18.3165E-03     18.3034E-03
            3743            4057     16.4092E-03     16.1570E-03
            3742            4057     16.4092E-03     16.1570E-03
            3693            4057     16.4092E-03     16.1570E-03
            3692            4057     16.4092E-03     16.1570E-03
            3743            4058     13.8582E-03     17.0861E-03
            3744            4058     13.8582E-03     17.0861E-03
            3693            4058     13.8582E-03     17.0861E-03
            3694            4058     13.8582E-03     17.0861E-03
            3695            4059     15.4335E-03     15.3172E-03
            3745            4059     15.4335E-03     15.3172E-03
            3694            4059     15.4335E-03     15.3172E-03
            3744            4059     15.4335E-03     15.3172E-03
            3745            4060     14.5659E-03     12.8015E-03
            3696            4060     14.5659E-03     12.8015E-03
            3695            4060     14.5659E-03     12.8015E-03
            3746            4060     14.5659E-03     12.8015E-03
            3747            4061     10.8387E-03     11.8301E-03
            3746            4061     10.8387E-03     11.8301E-03
            3696            4061     10.8387E-03     11.8301E-03
            3697            4061     10.8387E-03     11.8301E-03
            3698            4062     9.39594E-03     9.29895E-03
            3697            4062     9.39594E-03     9.29895E-03
            3748            4062     9.39594E-03     9.29895E-03
            3747            4062     9.39594E-03     9.29895E-03
            3698            4063     7.91881E-03     8.24376E-03
            3748            4063     7.91881E-03     8.24376E-03
            3749            4063     7.91881E-03     8.24376E-03
            3699            4063     7.91881E-03     8.24376E-03
            3700            4064     7.09908E-03     7.73807E-03
            3699            4064     7.09908E-03     7.73807E-03
            3750            4064     7.09908E-03     7.73807E-03
            3749            4064     7.09908E-03     7.73807E-03
            3701            4065     95.8344E-03     94.9551E-03
            3751            4065     95.8344E-03     94.9551E-03
            3752            4065     95.8344E-03     94.9551E-03
            3702            4065     95.8344E-03     94.9551E-03
            3702            4066     97.2596E-03     91.2081E-03
            3753            4066     97.2596E-03     91.2081E-03
            3752            4066     97.2596E-03     91.2081E-03
            3703            4066     97.2596E-03     91.2081E-03
            3753            4067     84.3535E-03     92.4579E-03
            3704            4067     84.3535E-03     92.4579E-03
            3703            4067     84.3535E-03     92.4579E-03
            3754            4067     84.3535E-03     92.4579E-03
            3755            4068     84.4218E-03     85.7973E-03
            3704            4068     84.4218E-03     85.7973E-03
            3705            4068     84.4218E-03     85.7973E-03
            3754            4068     84.4218E-03     85.7973E-03
            3756            4069     82.4745E-03     84.7954E-03
            3705            4069     82.4745E-03     84.7954E-03
            3755            4069     82.4745E-03     84.7954E-03
            3706            4069     82.4745E-03     84.7954E-03
            3756            4070     80.3811E-03     82.1174E-03
            3757            4070     80.3811E-03     82.1174E-03
            3706            4070     80.3811E-03     82.1174E-03
            3707            4070     80.3811E-03     82.1174E-03
            3707            4071     77.2691E-03     83.8045E-03
            3757            4071     77.2691E-03     83.8045E-03
            3758            4071     77.2691E-03     83.8045E-03
            3708            4071     77.2691E-03     83.8045E-03
            3708            4072     84.3137E-03     80.1838E-03
            3758            4072     84.3137E-03     80.1838E-03
            3709            4072     84.3137E-03     80.1838E-03
            3759            4072     84.3137E-03     80.1838E-03
            3710            4073     81.2610E-03     80.3130E-03
            3759            4073     81.2610E-03     80.3130E-03
            3760            4073     81.2610E-03     80.3130E-03
            3709            4073     81.2610E-03     80.3130E-03
            3711            4074     68.9452E-03     89.5722E-03
            3760            4074     68.9452E-03     89.5722E-03
            3710            4074     68.9452E-03     89.5722E-03
            3761            4074     68.9452E-03     89.5722E-03
            3762            4075     82.0220E-03     81.3119E-03
            3711            4075     82.0220E-03     81.3119E-03
            3761            4075     82.0220E-03     81.3119E-03
            3712            4075     82.0220E-03     81.3119E-03
            3763            4076     82.9239E-03     77.5728E-03
            3762            4076     82.9239E-03     77.5728E-03
            3713            4076     82.9239E-03     77.5728E-03
            3712            4076     82.9239E-03     77.5728E-03
            3763            4077     71.0768E-03     78.3581E-03
            3714            4077     71.0768E-03     78.3581E-03
            3764            4077     71.0768E-03     78.3581E-03
            3713            4077     71.0768E-03     78.3581E-03
            3764            4078     70.9621E-03     71.6103E-03
            3714            4078     70.9621E-03     71.6103E-03
            3765            4078     70.9621E-03     71.6103E-03
            3715            4078     70.9621E-03     71.6103E-03
            3715            4079     67.8375E-03     70.2926E-03
            3716            4079     67.8375E-03     70.2926E-03
            3766            4079     67.8375E-03     70.2926E-03
            3765            4079     67.8375E-03     70.2926E-03
            3716            4080     65.3272E-03     68.0465E-03
            3766            4080     65.3272E-03     68.0465E-03
            3717            4080     65.3272E-03     68.0465E-03
            3767            4080     65.3272E-03     68.0465E-03
            3718            4081     64.1334E-03     64.9247E-03
            3768            4081     64.1334E-03     64.9247E-03
            3767            4081     64.1334E-03     64.9247E-03
            3717            4081     64.1334E-03     64.9247E-03
            3719            4082     60.5789E-03     65.9439E-03
            3768            4082     60.5789E-03     65.9439E-03
            3718            4082     60.5789E-03     65.9439E-03
            3769            4082     60.5789E-03     65.9439E-03
            3719            4083     65.4280E-03     62.4504E-03
            3770            4083     65.4280E-03     62.4504E-03
            3720            4083     65.4280E-03     62.4504E-03
            3769            4083     65.4280E-03     62.4504E-03
            3721            4084     62.7822E-03     62.0527E-03
            3770            4084     62.7822E-03     62.0527E-03
            3720            4084     62.7822E-03     62.0527E-03
            3771            4084     62.7822E-03     62.0527E-03
            3771            4085     53.2042E-03     69.2267E-03
            3772            4085     53.2042E-03     69.2267E-03
            3721            4085     53.2042E-03     69.2267E-03
            3722            4085     53.2042E-03     69.2267E-03
            3723            4086     63.2452E-03     62.7571E-03
            3772            4086     63.2452E-03     62.7571E-03
            3722            4086     63.2452E-03     62.7571E-03
            3773            4086     63.2452E-03     62.7571E-03
            3774            4087     63.5243E-03     59.1711E-03
            3723            4087     63.5243E-03     59.1711E-03
            3724            4087     63.5243E-03     59.1711E-03
            3773            4087     63.5243E-03     59.1711E-03
            3774            4088     53.4675E-03     59.1482E-03
            3724            4088     53.4675E-03     59.1482E-03
            3775            4088     53.4675E-03     59.1482E-03
            3725            4088     53.4675E-03     59.1482E-03
            3775            4089     52.5901E-03     53.0378E-03
            3776            4089     52.5901E-03     53.0378E-03
            3726            4089     52.5901E-03     53.0378E-03
            3725            4089     52.5901E-03     53.0378E-03
            3727            4090     49.3979E-03     51.1217E-03
            3776            4090     49.3979E-03     51.1217E-03
            3726            4090     49.3979E-03     51.1217E-03
            3777            4090     49.3979E-03     51.1217E-03
            3778            4091     46.5041E-03     48.5280E-03
            3728            4091     46.5041E-03     48.5280E-03
            3777            4091     46.5041E-03     48.5280E-03
            3727            4091     46.5041E-03     48.5280E-03
            3779            4092     44.7163E-03     45.3228E-03
            3729            4092     44.7163E-03     45.3228E-03
            3728            4092     44.7163E-03     45.3228E-03
            3778            4092     44.7163E-03     45.3228E-03
            3729            4093     41.3759E-03     44.8323E-03
            3779            4093     41.3759E-03     44.8323E-03
            3780            4093     41.3759E-03     44.8323E-03
            3730            4093     41.3759E-03     44.8323E-03
            3780            4094     43.3803E-03     41.7640E-03
            3781            4094     43.3803E-03     41.7640E-03
            3731            4094     43.3803E-03     41.7640E-03
            3730            4094     43.3803E-03     41.7640E-03
            3781            4095     41.1342E-03     40.6449E-03
            3732            4095     41.1342E-03     40.6449E-03
            3782            4095     41.1342E-03     40.6449E-03
            3731            4095     41.1342E-03     40.6449E-03
            3732            4096     34.9809E-03     45.5774E-03
            3783            4096     34.9809E-03     45.5774E-03
            3733            4096     34.9809E-03     45.5774E-03
            3782            4096     34.9809E-03     45.5774E-03
            3733            4097     41.7051E-03     41.4638E-03
            3734            4097     41.7051E-03     41.4638E-03
            3783            4097     41.7051E-03     41.4638E-03
            3784            4097     41.7051E-03     41.4638E-03
            3785            4098     41.3161E-03     38.1286E-03
            3734            4098     41.3161E-03     38.1286E-03
            3784            4098     41.3161E-03     38.1286E-03
            3735            4098     41.3161E-03     38.1286E-03
            3736            4099     33.4008E-03     37.2234E-03
            3735            4099     33.4008E-03     37.2234E-03
            3786            4099     33.4008E-03     37.2234E-03
            3785            4099     33.4008E-03     37.2234E-03
            3786            4100     31.7067E-03     31.9119E-03
            3736            4100     31.7067E-03     31.9119E-03
            3787            4100     31.7067E-03     31.9119E-03
            3737            4100     31.7067E-03     31.9119E-03
            3737            4101     28.4948E-03     29.3685E-03
            3787            4101     28.4948E-03     29.3685E-03
            3738            4101     28.4948E-03     29.3685E-03
            3788            4101     28.4948E-03     29.3685E-03
            3789            4102     25.2328E-03     26.4386E-03
            3738            4102     25.2328E-03     26.4386E-03
            3788            4102     25.2328E-03     26.4386E-03
            3739            4102     25.2328E-03     26.4386E-03
            3739            4103     22.8250E-03     23.2037E-03
            3789            4103     22.8250E-03     23.2037E-03
            3790            4103     22.8250E-03     23.2037E-03
            3740            4103     22.8250E-03     23.2037E-03
            3740            4104     19.7820E-03     21.0790E-03
            3790            4104     19.7820E-03     21.0790E-03
            3791            4104     19.7820E-03     21.0790E-03
            3741            4104     19.7820E-03     21.0790E-03
            3742            4105     18.6167E-03     18.5395E-03
            3791            4105     18.6167E-03     18.5395E-03
            3741            4105     18.6167E-03     18.5395E-03
            3792            4105     18.6167E-03     18.5395E-03
            3792            4106     16.8300E-03     16.6411E-03
            3793            4106     16.8300E-03     16.6411E-03
            3742            4106     16.8300E-03     16.6411E-03
            3743            4106     16.8300E-03     16.6411E-03
            3743            4107     13.8991E-03     18.2845E-03
            3794            4107     13.8991E-03     18.2845E-03
            3744            4107     13.8991E-03     18.2845E-03
            3793            4107     13.8991E-03     18.2845E-03
            3744            4108     15.9520E-03     16.0459E-03
            3795            4108     15.9520E-03     16.0459E-03
            3794            4108     15.9520E-03     16.0459E-03
            3745            4108     15.9520E-03     16.0459E-03
            3745            4109     14.5862E-03     12.8788E-03
            3746            4109     14.5862E-03     12.8788E-03
            3796            4109     14.5862E-03     12.8788E-03
            3795            4109     14.5862E-03     12.8788E-03
            3797            4110     9.32388E-03     10.8770E-03
            3746            4110     9.32388E-03     10.8770E-03
            3747            4110     9.32388E-03     10.8770E-03
            3796            4110     9.32388E-03     10.8770E-03
            3748            4111     7.07086E-03     6.61343E-03
            3797            4111     7.07086E-03     6.61343E-03
            3798            4111     7.07086E-03     6.61343E-03
            3747            4111     7.07086E-03     6.61343E-03
            3748            4112     4.49256E-03     4.51769E-03
            3798            4112     4.49256E-03     4.51769E-03
            3749            4112     4.49256E-03     4.51769E-03
            3799            4112     4.49256E-03     4.51769E-03
            3799            4113     2.84567E-03     4.08949E-03
            3749            4113     2.84567E-03     4.08949E-03
            3750            4113     2.84567E-03     4.08949E-03
            3800            4113     2.84567E-03     4.08949E-03
            3801            4114     102.570E-03     100.209E-03
            3751            4114     102.570E-03     100.209E-03
            3752            4114     102.570E-03     100.209E-03
            3802            4114     102.570E-03     100.209E-03
            3803            4115     100.782E-03     95.7316E-03
            3802            4115     100.782E-03     95.7316E-03
            3753            4115     100.782E-03     95.7316E-03
            3752            4115     100.782E-03     95.7316E-03
            3803            4116     89.8248E-03     95.8115E-03
            3754            4116     89.8248E-03     95.8115E-03
            3804            4116     89.8248E-03     95.8115E-03
            3753            4116     89.8248E-03     95.8115E-03
            3754            4117     90.0120E-03     89.9818E-03
            3755            4117     90.0120E-03     89.9818E-03
            3804            4117     90.0120E-03     89.9818E-03
            3805            4117     90.0120E-03     89.9818E-03
            3806            4118     87.2585E-03     89.1380E-03
            3805            4118     87.2585E-03     89.1380E-03
            3756            4118     87.2585E-03     89.1380E-03
            3755            4118     87.2585E-03     89.1380E-03
            3756            4119     85.5407E-03     85.9551E-03
            3807            4119     85.5407E-03     85.9551E-03
            3757            4119     85.5407E-03     85.9551E-03
            3806            4119     85.5407E-03     85.9551E-03
            3757            4120     81.7786E-03     86.5406E-03
            3808            4120     81.7786E-03     86.5406E-03
            3807            4120     81.7786E-03     86.5406E-03
            3758            4120     81.7786E-03     86.5406E-03
            3808            4121     86.2798E-03     82.6104E-03
            3809            4121     86.2798E-03     82.6104E-03
            3759            4121     86.2798E-03     82.6104E-03
            3758            4121     86.2798E-03     82.6104E-03
            3759            4122     84.3357E-03     82.3140E-03
            3810            4122     84.3357E-03     82.3140E-03
            3760            4122     84.3357E-03     82.3140E-03
            3809            4122     84.3357E-03     82.3140E-03
            3760            4123     76.8179E-03     92.2485E-03
            3810            4123     76.8179E-03     92.2485E-03
            3811            4123     76.8179E-03     92.2485E-03
            3761            4123     76.8179E-03     92.2485E-03
            3761            4124     88.2994E-03     86.3029E-03
            3812            4124     88.2994E-03     86.3029E-03
            3762            4124     88.2994E-03     86.3029E-03
            3811            4124     88.2994E-03     86.3029E-03
            3813            4125     86.2243E-03     81.7973E-03
            3812            4125     86.2243E-03     81.7973E-03
            3763            4125     86.2243E-03     81.7973E-03
            3762            4125     86.2243E-03     81.7973E-03
            3763            4126     75.9950E-03     81.2827E-03
            3814            4126     75.9950E-03     81.2827E-03
            3813            4126     75.9950E-03     81.2827E-03
            3764            4126     75.9950E-03     81.2827E-03
            3765            4127     75.7172E-03     75.4042E-03
            3815            4127     75.7172E-03     75.4042E-03
            3814            4127     75.7172E-03     75.4042E-03
            3764            4127     75.7172E-03     75.4042E-03
            3766            4128     72.4077E-03     73.9891E-03
            3815            4128     72.4077E-03     73.9891E-03
            3816            4128     72.4077E-03     73.9891E-03
            3765            4128     72.4077E-03     73.9891E-03
            3766            4129     69.8988E-03     71.4704E-03
            3817            4129     69.8988E-03     71.4704E-03
            3767            4129     69.8988E-03     71.4704E-03
            3816            4129     69.8988E-03     71.4704E-03
            3818            4130     68.1342E-03     68.2563E-03
            3768            4130     68.1342E-03     68.2563E-03
            3767            4130     68.1342E-03     68.2563E-03
            3817            4130     68.1342E-03     68.2563E-03
            3818            4131     64.2136E-03     67.9512E-03
            3768            4131     64.2136E-03     67.9512E-03
            3769            4131     64.2136E-03     67.9512E-03
            3819            4131     64.2136E-03     67.9512E-03
            3769            4132     66.7377E-03     64.0209E-03
            3770            4132     66.7377E-03     64.0209E-03
            3820            4132     66.7377E-03     64.0209E-03
            3819            4132     66.7377E-03     64.0209E-03
            3770            4133     64.5590E-03     62.9290E-03
            3820            4133     64.5590E-03     62.9290E-03
            3821            4133     64.5590E-03     62.9290E-03
            3771            4133     64.5590E-03     62.9290E-03
            3822            4134     59.4017E-03     71.3625E-03
            3821            4134     59.4017E-03     71.3625E-03
            3771            4134     59.4017E-03     71.3625E-03
            3772            4134     59.4017E-03     71.3625E-03
            3772            4135     68.9104E-03     67.4418E-03
            3822            4135     68.9104E-03     67.4418E-03
            3823            4135     68.9104E-03     67.4418E-03
            3773            4135     68.9104E-03     67.4418E-03
            3823            4136     66.5309E-03     62.9919E-03
            3824            4136     66.5309E-03     62.9919E-03
            3774            4136     66.5309E-03     62.9919E-03
            3773            4136     66.5309E-03     62.9919E-03
            3824            4137     57.4876E-03     61.6629E-03
            3825            4137     57.4876E-03     61.6629E-03
            3774            4137     57.4876E-03     61.6629E-03
            3775            4137     57.4876E-03     61.6629E-03
            3775            4138     56.3748E-03     56.0672E-03
            3825            4138     56.3748E-03     56.0672E-03
            3776            4138     56.3748E-03     56.0672E-03
            3826            4138     56.3748E-03     56.0672E-03
            3776            4139     52.8717E-03     54.0267E-03
            3827            4139     52.8717E-03     54.0267E-03
            3777            4139     52.8717E-03     54.0267E-03
            3826            4139     52.8717E-03     54.0267E-03
            3777            4140     49.9623E-03     51.0996E-03
            3827            4140     49.9623E-03     51.0996E-03
            3828            4140     49.9623E-03     51.0996E-03
            3778            4140     49.9623E-03     51.0996E-03
            3778            4141     47.5770E-03     47.7623E-03
            3779            4141     47.5770E-03     47.7623E-03
            3828            4141     47.5770E-03     47.7623E-03
            3829            4141     47.5770E-03     47.7623E-03
            3780            4142     43.8206E-03     46.1800E-03
            3830            4142     43.8206E-03     46.1800E-03
            3829            4142     43.8206E-03     46.1800E-03
            3779            4142     43.8206E-03     46.1800E-03
            3780            4143     43.9456E-03     42.3814E-03
            3831            4143     43.9456E-03     42.3814E-03
            3830            4143     43.9456E-03     42.3814E-03
            3781            4143     43.9456E-03     42.3814E-03
            3782            4144     41.4493E-03     40.3530E-03
            3831            4144     41.4493E-03     40.3530E-03
            3832            4144     41.4493E-03     40.3530E-03
            3781            4144     41.4493E-03     40.3530E-03
            3832            4145     39.1267E-03     47.0597E-03
            3782            4145     39.1267E-03     47.0597E-03
            3833            4145     39.1267E-03     47.0597E-03
            3783            4145     39.1267E-03     47.0597E-03
            3834            4146     46.4865E-03     45.6273E-03
            3783            4146     46.4865E-03     45.6273E-03
            3784            4146     46.4865E-03     45.6273E-03
            3833            4146     46.4865E-03     45.6273E-03
            3784            4147     43.8456E-03     41.3464E-03
            3785            4147     43.8456E-03     41.3464E-03
            3835            4147     43.8456E-03     41.3464E-03
            3834            4147     43.8456E-03     41.3464E-03
            3785            4148     36.2835E-03     39.1664E-03
            3835            4148     36.2835E-03     39.1664E-03
            3786            4148     36.2835E-03     39.1664E-03
            3836            4148     36.2835E-03     39.1664E-03
            3837            4149     34.2942E-03     33.9938E-03
            3836            4149     34.2942E-03     33.9938E-03
            3787            4149     34.2942E-03     33.9938E-03
            3786            4149     34.2942E-03     33.9938E-03
            3837            4150     30.6547E-03     31.3163E-03
            3787            4150     30.6547E-03     31.3163E-03
            3838            4150     30.6547E-03     31.3163E-03
            3788            4150     30.6547E-03     31.3163E-03
            3789            4151     27.3727E-03     28.0107E-03
            3788            4151     27.3727E-03     28.0107E-03
            3838            4151     27.3727E-03     28.0107E-03
            3839            4151     27.3727E-03     28.0107E-03
            3840            4152     24.3687E-03     24.6166E-03
            3790            4152     24.3687E-03     24.6166E-03
            3839            4152     24.3687E-03     24.6166E-03
            3789            4152     24.3687E-03     24.6166E-03
            3841            4153     20.8629E-03     21.6834E-03
            3790            4153     20.8629E-03     21.6834E-03
            3840            4153     20.8629E-03     21.6834E-03
            3791            4153     20.8629E-03     21.6834E-03
            3791            4154     18.3186E-03     18.1206E-03
            3842            4154     18.3186E-03     18.1206E-03
            3841            4154     18.3186E-03     18.1206E-03
            3792            4154     18.3186E-03     18.1206E-03
            3792            4155     15.4187E-03     14.9963E-03
            3842            4155     15.4187E-03     14.9963E-03
            3793            4155     15.4187E-03     14.9963E-03
            3843            4155     15.4187E-03     14.9963E-03
            3843            4156     15.6121E-03     18.9666E-03
            3844            4156     15.6121E-03     18.9666E-03
            3794            4156     15.6121E-03     18.9666E-03
            3793            4156     15.6121E-03     18.9666E-03
            3794            4157     19.7464E-03     19.6669E-03
            3844            4157     19.7464E-03     19.6669E-03
            3845            4157     19.7464E-03     19.6669E-03
            3795            4157     19.7464E-03     19.6669E-03
            3796            4158     16.7083E-03     15.4557E-03
            3846            4158     16.7083E-03     15.4557E-03
            3845            4158     16.7083E-03     15.4557E-03
            3795            4158     16.7083E-03     15.4557E-03
            3797            4159     10.9177E-03     12.3469E-03
            3847            4159     10.9177E-03     12.3469E-03
            3846            4159     10.9177E-03     12.3469E-03
            3796            4159     10.9177E-03     12.3469E-03
            3798            4160     8.23615E-03     7.76889E-03
            3847            4160     8.23615E-03     7.76889E-03
            3797            4160     8.23615E-03     7.76889E-03
            3848            4160     8.23615E-03     7.76889E-03
            3798            4161     5.49985E-03     5.37254E-03
            3799            4161     5.49985E-03     5.37254E-03
            3849            4161     5.49985E-03     5.37254E-03
            3848            4161     5.49985E-03     5.37254E-03
            3850            4162     4.11121E-03     5.38484E-03
            3800            4162     4.11121E-03     5.38484E-03
            3799            4162     4.11121E-03     5.38484E-03
            3849            4162     4.11121E-03     5.38484E-03
            4107            4328     22.1062E-03     21.9080E-03
            4108            4328     22.1062E-03     21.9080E-03
            4068            4328     22.1062E-03     21.9080E-03
            4067            4328     22.1062E-03     21.9080E-03
            4108            4329     22.1009E-03     22.0733E-03
            4068            4329     22.1009E-03     22.0733E-03
            4069            4329     22.1009E-03     22.0733E-03
            4109            4329     22.1009E-03     22.0733E-03
            4070            4330     22.1920E-03     22.1115E-03
            4110            4330     22.1920E-03     22.1115E-03
            4069            4330     22.1920E-03     22.1115E-03
            4109            4330     22.1920E-03     22.1115E-03
            4111            4331     22.1523E-03     21.7867E-03
            4071            4331     22.1523E-03     21.7867E-03
            4110            4331     22.1523E-03     21.7867E-03
            4070            4331     22.1523E-03     21.7867E-03
            4072            4332     21.3872E-03     21.1920E-03
            4111            4332     21.3872E-03     21.1920E-03
            4112            4332     21.3872E-03     21.1920E-03
            4071            4332     21.3872E-03     21.1920E-03
            4112            4333     20.9518E-03     20.7440E-03
            4073            4333     20.9518E-03     20.7440E-03
            4072            4333     20.9518E-03     20.7440E-03
            4113            4333     20.9518E-03     20.7440E-03
            4113            4334     21.0719E-03     20.7268E-03
            4114            4334     21.0719E-03     20.7268E-03
            4073            4334     21.0719E-03     20.7268E-03
            4074            4334     21.0719E-03     20.7268E-03
            4074            4335     21.1060E-03     20.8477E-03
            4114            4335     21.1060E-03     20.8477E-03
            4075            4335     21.1060E-03     20.8477E-03
            4115            4335     21.1060E-03     20.8477E-03
            4075            4336     21.1033E-03     20.9171E-03
            4076            4336     21.1033E-03     20.9171E-03
            4115            4336     21.1033E-03     20.9171E-03
            4116            4336     21.1033E-03     20.9171E-03
            4076            4337     21.1072E-03     21.0594E-03
            4077            4337     21.1072E-03     21.0594E-03
            4117            4337     21.1072E-03     21.0594E-03
            4116            4337     21.1072E-03     21.0594E-03
            4118            4338     21.1697E-03     21.2160E-03
            4117            4338     21.1697E-03     21.2160E-03
            4078            4338     21.1697E-03     21.2160E-03
            4077            4338     21.1697E-03     21.2160E-03
            4078            4339     21.2273E-03     21.2555E-03
            4118            4339     21.2273E-03     21.2555E-03
            4079            4339     21.2273E-03     21.2555E-03
            4119            4339     21.2273E-03     21.2555E-03
            4079            4340     21.0688E-03     21.4905E-03
            4080            4340     21.0688E-03     21.4905E-03
            4120            4340     21.0688E-03     21.4905E-03
            4119            4340     21.0688E-03     21.4905E-03
            4080            4341     21.5438E-03     21.5753E-03
            4120            4341     21.5438E-03     21.5753E-03
            4081            4341     21.5438E-03     21.5753E-03
            4121            4341     21.5438E-03     21.5753E-03
            4122            4342     21.5253E-03     20.7771E-03
            4121            4342     21.5253E-03     20.7771E-03
            4082            4342     21.5253E-03     20.7771E-03
            4081            4342     21.5253E-03     20.7771E-03
            4083            4343     20.1840E-03     20.1086E-03
            4123            4343     20.1840E-03     20.1086E-03
            4082            4343     20.1840E-03     20.1086E-03
            4122            4343     20.1840E-03     20.1086E-03
            4084            4344     19.5674E-03     19.5518E-03
            4123            4344     19.5674E-03     19.5518E-03
            4124            4344     19.5674E-03     19.5518E-03
            4083            4344     19.5674E-03     19.5518E-03
            4084            4345     19.8840E-03     19.2047E-03
            4125            4345     19.8840E-03     19.2047E-03
            4124            4345     19.8840E-03     19.2047E-03
            4085            4345     19.8840E-03     19.2047E-03
            4085            4346     20.0874E-03     19.5437E-03
            4126            4346     20.0874E-03     19.5437E-03
            4125            4346     20.0874E-03     19.5437E-03
            4086            4346     20.0874E-03     19.5437E-03
            4126            4347     20.1288E-03     19.7765E-03
            4086            4347     20.1288E-03     19.7765E-03
            4127            4347     20.1288E-03     19.7765E-03
            4087            4347     20.1288E-03     19.7765E-03
            4087            4348     20.2271E-03     19.9900E-03
            4127            4348     20.2271E-03     19.9900E-03
            4088            4348     20.2271E-03     19.9900E-03
            4128            4348     20.2271E-03     19.9900E-03
            4088            4349     20.2735E-03     20.3052E-03
            4129            4349     20.2735E-03     20.3052E-03
            4089            4349     20.2735E-03     20.3052E-03
            4128            4349     20.2735E-03     20.3052E-03
            4129            4350     20.3667E-03     20.5467E-03
            4089            4350     20.3667E-03     20.5467E-03
            4130            4350     20.3667E-03     20.5467E-03
            4090            4350     20.3667E-03     20.5467E-03
            4130            4351     20.4164E-03     20.5931E-03
            4090            4351     20.4164E-03     20.5931E-03
            4091            4351     20.4164E-03     20.5931E-03
            4131            4351     20.4164E-03     20.5931E-03
            4132            4352     20.0867E-03     20.9292E-03
            4092            4352     20.0867E-03     20.9292E-03
            4131            4352     20.0867E-03     20.9292E-03
            4091            4352     20.0867E-03     20.9292E-03
            4133            4353     20.8239E-03     20.9516E-03
            4093            4353     20.8239E-03     20.9516E-03
            4132            4353     20.8239E-03     20.9516E-03
            4092            4353     20.8239E-03     20.9516E-03
            4133            4354     20.7374E-03     19.6876E-03
            4134            4354     20.7374E-03     19.6876E-03
            4093            4354     20.7374E-03     19.6876E-03
            4094            4354     20.7374E-03     19.6876E-03
            4094            4355     19.1054E-03     19.3350E-03
            4095            4355     19.1054E-03     19.3350E-03
            4134            4355     19.1054E-03     19.3350E-03
            4135            4355     19.1054E-03     19.3350E-03
            4136            4356     18.8726E-03     18.9766E-03
            4095            4356     18.8726E-03     18.9766E-03
            4096            4356     18.8726E-03     18.9766E-03
            4135            4356     18.8726E-03     18.9766E-03
            4097            4357     19.3566E-03     18.4164E-03
            4096            4357     19.3566E-03     18.4164E-03
            4137            4357     19.3566E-03     18.4164E-03
            4136            4357     19.3566E-03     18.4164E-03
            4137            4358     19.6463E-03     19.0466E-03
            4098            4358     19.6463E-03     19.0466E-03
            4138            4358     19.6463E-03     19.0466E-03
            4097            4358     19.6463E-03     19.0466E-03
            4139            4359     19.6597E-03     19.3166E-03
            4138            4359     19.6597E-03     19.3166E-03
            4098            4359     19.6597E-03     19.3166E-03
            4099            4359     19.6597E-03     19.3166E-03
            4099            4360     19.7200E-03     19.6291E-03
            4140            4360     19.7200E-03     19.6291E-03
            4100            4360     19.7200E-03     19.6291E-03
            4139            4360     19.7200E-03     19.6291E-03
            4140            4361     19.7777E-03     19.9670E-03
            4141            4361     19.7777E-03     19.9670E-03
            4101            4361     19.7777E-03     19.9670E-03
            4100            4361     19.7777E-03     19.9670E-03
            4142            4362     19.7153E-03     19.9781E-03
            4101            4362     19.7153E-03     19.9781E-03
            4141            4362     19.7153E-03     19.9781E-03
            4102            4362     19.7153E-03     19.9781E-03
            4142            4363     19.1925E-03     20.3333E-03
            4103            4363     19.1925E-03     20.3333E-03
            4143            4363     19.1925E-03     20.3333E-03
            4102            4363     19.1925E-03     20.3333E-03
            4144            4364     20.0246E-03     20.2368E-03
            4104            4364     20.0246E-03     20.2368E-03
            4103            4364     20.0246E-03     20.2368E-03
            4143            4364     20.0246E-03     20.2368E-03
            4104            4365     19.8203E-03     18.6206E-03
            4144            4365     19.8203E-03     18.6206E-03
            4105            4365     19.8203E-03     18.6206E-03
            4145            4365     19.8203E-03     18.6206E-03
            4106            4366     15.9694E-03     15.6496E-03
            4105            4366     15.9694E-03     15.6496E-03
            4145            4366     15.9694E-03     15.6496E-03
            4146            4366     15.9694E-03     15.6496E-03
            4147            4367     21.3589E-03     21.1472E-03
            4148            4367     21.3589E-03     21.1472E-03
            4108            4367     21.3589E-03     21.1472E-03
            4107            4367     21.3589E-03     21.1472E-03
            4148            4368     21.4110E-03     21.3698E-03
            4108            4368     21.4110E-03     21.3698E-03
            4149            4368     21.4110E-03     21.3698E-03
            4109            4368     21.4110E-03     21.3698E-03
            4150            4369     21.5927E-03     21.4571E-03
            4149            4369     21.5927E-03     21.4571E-03
            4110            4369     21.5927E-03     21.4571E-03
            4109            4369     21.5927E-03     21.4571E-03
            4110            4370     21.5357E-03     21.2524E-03
            4111            4370     21.5357E-03     21.2524E-03
            4151            4370     21.5357E-03     21.2524E-03
            4150            4370     21.5357E-03     21.2524E-03
            4112            4371     20.6111E-03     20.5862E-03
            4152            4371     20.6111E-03     20.5862E-03
            4151            4371     20.6111E-03     20.5862E-03
            4111            4371     20.6111E-03     20.5862E-03
            4113            4372     20.1357E-03     20.0559E-03
            4153            4372     20.1357E-03     20.0559E-03
            4112            4372     20.1357E-03     20.0559E-03
            4152            4372     20.1357E-03     20.0559E-03
            4113            4373     20.3978E-03     20.3153E-03
            4153            4373     20.3978E-03     20.3153E-03
            4154            4373     20.3978E-03     20.3153E-03
            4114            4373     20.3978E-03     20.3153E-03
            4154            4374     20.6463E-03     20.7296E-03
            4114            4374     20.6463E-03     20.7296E-03
            4115            4374     20.6463E-03     20.7296E-03
            4155            4374     20.6463E-03     20.7296E-03
            4155            4375     20.9947E-03     21.1128E-03
            4156            4375     20.9947E-03     21.1128E-03
            4116            4375     20.9947E-03     21.1128E-03
            4115            4375     20.9947E-03     21.1128E-03
            4117            4376     21.3645E-03     21.5321E-03
            4157            4376     21.3645E-03     21.5321E-03
            4156            4376     21.3645E-03     21.5321E-03
            4116            4376     21.3645E-03     21.5321E-03
            4157            4377     21.9046E-03     21.8908E-03
            4158            4377     21.9046E-03     21.8908E-03
            4118            4377     21.9046E-03     21.8908E-03
            4117            4377     21.9046E-03     21.8908E-03
            4118            4378     22.3820E-03     22.1242E-03
            4158            4378     22.3820E-03     22.1242E-03
            4119            4378     22.3820E-03     22.1242E-03
            4159            4378     22.3820E-03     22.1242E-03
            4119            4379     22.5438E-03     22.8830E-03
            4159            4379     22.5438E-03     22.8830E-03
            4120            4379     22.5438E-03     22.8830E-03
            4160            4379     22.5438E-03     22.8830E-03
            4121            4380     23.8027E-03     23.0342E-03
            4120            4380     23.8027E-03     23.0342E-03
            4161            4380     23.8027E-03     23.0342E-03
            4160            4380     23.8027E-03     23.0342E-03
            4122            4381     23.5759E-03     22.5749E-03
            4161            4381     23.5759E-03     22.5749E-03
            4162            4381     23.5759E-03     22.5749E-03
            4121            4381     23.5759E-03     22.5749E-03
            4162            4382     21.3889E-03     22.2636E-03
            4122            4382     21.3889E-03     22.2636E-03
            4123            4382     21.3889E-03     22.2636E-03
            4163            4382     21.3889E-03     22.2636E-03
            4163            4383     21.4445E-03     21.4438E-03
            4164            4383     21.4445E-03     21.4438E-03
            4123            4383     21.4445E-03     21.4438E-03
            4124            4383     21.4445E-03     21.4438E-03
            4164            4384     22.2499E-03     21.8496E-03
            4165            4384     22.2499E-03     21.8496E-03
            4124            4384     22.2499E-03     21.8496E-03
            4125            4384     22.2499E-03     21.8496E-03
            4125            4385     22.5284E-03     22.9201E-03
            4165            4385     22.5284E-03     22.9201E-03
            4166            4385     22.5284E-03     22.9201E-03
            4126            4385     22.5284E-03     22.9201E-03
            4167            4386     23.2215E-03     23.3802E-03
            4127            4386     23.2215E-03     23.3802E-03
            4166            4386     23.2215E-03     23.3802E-03
            4126            4386     23.2215E-03     23.3802E-03
            4127            4387     23.9225E-03     23.9188E-03
            4128            4387     23.9225E-03     23.9188E-03
            4167            4387     23.9225E-03     23.9188E-03
            4168            4387     23.9225E-03     23.9188E-03
            4169            4388     24.4718E-03     24.5050E-03
            4128            4388     24.4718E-03     24.5050E-03
            4129            4388     24.4718E-03     24.5050E-03
            4168            4388     24.4718E-03     24.5050E-03
            4170            4389     25.2843E-03     24.9350E-03
            4169            4389     25.2843E-03     24.9350E-03
            4130            4389     25.2843E-03     24.9350E-03
            4129            4389     25.2843E-03     24.9350E-03
            4131            4390     25.8613E-03     25.2514E-03
            4171            4390     25.8613E-03     25.2514E-03
            4170            4390     25.8613E-03     25.2514E-03
            4130            4390     25.8613E-03     25.2514E-03
            4131            4391     25.8131E-03     26.4834E-03
            4132            4391     25.8131E-03     26.4834E-03
            4171            4391     25.8131E-03     26.4834E-03
            4172            4391     25.8131E-03     26.4834E-03
            4132            4392     27.7115E-03     26.3209E-03
            4172            4392     27.7115E-03     26.3209E-03
            4173            4392     27.7115E-03     26.3209E-03
            4133            4392     27.7115E-03     26.3209E-03
            4174            4393     26.9897E-03     25.4657E-03
            4133            4393     26.9897E-03     25.4657E-03
            4173            4393     26.9897E-03     25.4657E-03
            4134            4393     26.9897E-03     25.4657E-03
            4135            4394     23.6561E-03     25.7597E-03
            4175            4394     23.6561E-03     25.7597E-03
            4174            4394     23.6561E-03     25.7597E-03
            4134            4394     23.6561E-03     25.7597E-03
            4175            4395     24.9021E-03     24.6937E-03
            4135            4395     24.9021E-03     24.6937E-03
            4136            4395     24.9021E-03     24.6937E-03
            4176            4395     24.9021E-03     24.6937E-03
            4137            4396     26.3164E-03     25.3006E-03
            4177            4396     26.3164E-03     25.3006E-03
            4136            4396     26.3164E-03     25.3006E-03
            4176            4396     26.3164E-03     25.3006E-03
            4137            4397     26.2611E-03     26.9439E-03
            4177            4397     26.2611E-03     26.9439E-03
            4178            4397     26.2611E-03     26.9439E-03
            4138            4397     26.2611E-03     26.9439E-03
            4179            4398     27.2266E-03     27.1939E-03
            4178            4398     27.2266E-03     27.1939E-03
            4138            4398     27.2266E-03     27.1939E-03
            4139            4398     27.2266E-03     27.1939E-03
            4180            4399     27.8933E-03     27.9050E-03
            4139            4399     27.8933E-03     27.9050E-03
            4140            4399     27.8933E-03     27.9050E-03
            4179            4399     27.8933E-03     27.9050E-03
            4181            4400     28.6599E-03     28.4301E-03
            4180            4400     28.6599E-03     28.4301E-03
            4140            4400     28.6599E-03     28.4301E-03
            4141            4400     28.6599E-03     28.4301E-03
            4182            4401     29.1937E-03     28.6135E-03
            4181            4401     29.1937E-03     28.6135E-03
            4141            4401     29.1937E-03     28.6135E-03
            4142            4401     29.1937E-03     28.6135E-03
            4183            4402     28.8536E-03     29.9445E-03
            4142            4402     28.8536E-03     29.9445E-03
            4143            4402     28.8536E-03     29.9445E-03
            4182            4402     28.8536E-03     29.9445E-03
            4184            4403     30.9783E-03     29.3082E-03
            4183            4403     30.9783E-03     29.3082E-03
            4143            4403     30.9783E-03     29.3082E-03
            4144            4403     30.9783E-03     29.3082E-03
            4185            4404     29.7640E-03     27.9437E-03
            4184            4404     29.7640E-03     27.9437E-03
            4144            4404     29.7640E-03     27.9437E-03
            4145            4404     29.7640E-03     27.9437E-03
            4186            4405     25.4252E-03     26.7230E-03
            4185            4405     25.4252E-03     26.7230E-03
            4145            4405     25.4252E-03     26.7230E-03
            4146            4405     25.4252E-03     26.7230E-03
            4188            4406     19.5207E-03     19.3656E-03
            4147            4406     19.5207E-03     19.3656E-03
            4148            4406     19.5207E-03     19.3656E-03
            4187            4406     19.5207E-03     19.3656E-03
            4149            4407     19.5273E-03     19.6592E-03
            4188            4407     19.5273E-03     19.6592E-03
            4148            4407     19.5273E-03     19.6592E-03
            4189            4407     19.5273E-03     19.6592E-03
            4149            4408     20.0525E-03     19.8152E-03
            4189            4408     20.0525E-03     19.8152E-03
            4190            4408     20.0525E-03     19.8152E-03
            4150            4408     20.0525E-03     19.8152E-03
            4191            4409     20.2200E-03     19.9241E-03
            4150            4409     20.2200E-03     19.9241E-03
            4151            4409     20.2200E-03     19.9241E-03
            4190            4409     20.2200E-03     19.9241E-03
            4192            4410     19.0937E-03     19.3952E-03
            4191            4410     19.0937E-03     19.3952E-03
            4151            4410     19.0937E-03     19.3952E-03
            4152            4410     19.0937E-03     19.3952E-03
            4193            4411     18.6321E-03     18.9244E-03
            4192            4411     18.6321E-03     18.9244E-03
            4152            4411     18.6321E-03     18.9244E-03
            4153            4411     18.6321E-03     18.9244E-03
            4194            4412     19.1374E-03     19.6168E-03
            4153            4412     19.1374E-03     19.6168E-03
            4154            4412     19.1374E-03     19.6168E-03
            4193            4412     19.1374E-03     19.6168E-03
            4195            4413     19.8421E-03     20.3965E-03
            4194            4413     19.8421E-03     20.3965E-03
            4154            4413     19.8421E-03     20.3965E-03
            4155            4413     19.8421E-03     20.3965E-03
            4196            4414     20.7050E-03     20.9887E-03
            4156            4414     20.7050E-03     20.9887E-03
            4155            4414     20.7050E-03     20.9887E-03
            4195            4414     20.7050E-03     20.9887E-03
            4197            4415     21.5665E-03     21.7228E-03
            4156            4415     21.5665E-03     21.7228E-03
            4196            4415     21.5665E-03     21.7228E-03
            4157            4415     21.5665E-03     21.7228E-03
            4198            4416     22.6567E-03     22.4437E-03
            4157            4416     22.6567E-03     22.4437E-03
            4158            4416     22.6567E-03     22.4437E-03
            4197            4416     22.6567E-03     22.4437E-03
            4198            4417     23.6653E-03     23.1344E-03
            4158            4417     23.6653E-03     23.1344E-03
            4159            4417     23.6653E-03     23.1344E-03
            4199            4417     23.6653E-03     23.1344E-03
            4160            4418     24.3343E-03     24.8376E-03
            4199            4418     24.3343E-03     24.8376E-03
            4159            4418     24.3343E-03     24.8376E-03
            4200            4418     24.3343E-03     24.8376E-03
            4201            4419     27.2355E-03     25.2319E-03
            4160            4419     27.2355E-03     25.2319E-03
            4161            4419     27.2355E-03     25.2319E-03
            4200            4419     27.2355E-03     25.2319E-03
            4202            4420     27.0415E-03     25.8803E-03
            4201            4420     27.0415E-03     25.8803E-03
            4161            4420     27.0415E-03     25.8803E-03
            4162            4420     27.0415E-03     25.8803E-03
            4203            4421     23.6872E-03     26.7416E-03
            4163            4421     23.6872E-03     26.7416E-03
            4162            4421     23.6872E-03     26.7416E-03
            4202            4421     23.6872E-03     26.7416E-03
            4204            4422     25.2401E-03     25.4834E-03
            4203            4422     25.2401E-03     25.4834E-03
            4163            4422     25.2401E-03     25.4834E-03
            4164            4422     25.2401E-03     25.4834E-03
            4164            4423     26.7335E-03     26.5080E-03
            4204            4423     26.7335E-03     26.5080E-03
            4165            4423     26.7335E-03     26.5080E-03
            4205            4423     26.7335E-03     26.5080E-03
            4205            4424     26.6892E-03     28.0572E-03
            4165            4424     26.6892E-03     28.0572E-03
            4206            4424     26.6892E-03     28.0572E-03
            4166            4424     26.6892E-03     28.0572E-03
            4207            4425     27.9649E-03     28.2436E-03
            4206            4425     27.9649E-03     28.2436E-03
            4166            4425     27.9649E-03     28.2436E-03
            4167            4425     27.9649E-03     28.2436E-03
            4167            4426     29.0357E-03     28.9686E-03
            4208            4426     29.0357E-03     28.9686E-03
            4168            4426     29.0357E-03     28.9686E-03
            4207            4426     29.0357E-03     28.9686E-03
            4208            4427     29.9609E-03     30.0037E-03
            4169            4427     29.9609E-03     30.0037E-03
            4168            4427     29.9609E-03     30.0037E-03
            4209            4427     29.9609E-03     30.0037E-03
            4209            4428     31.5094E-03     30.8626E-03
            4169            4428     31.5094E-03     30.8626E-03
            4210            4428     31.5094E-03     30.8626E-03
            4170            4428     31.5094E-03     30.8626E-03
            4210            4429     32.8239E-03     31.8042E-03
            4211            4429     32.8239E-03     31.8042E-03
            4170            4429     32.8239E-03     31.8042E-03
            4171            4429     32.8239E-03     31.8042E-03
            4211            4430     33.4371E-03     34.5188E-03
            4212            4430     33.4371E-03     34.5188E-03
            4171            4430     33.4371E-03     34.5188E-03
            4172            4430     33.4371E-03     34.5188E-03
            4212            4431     37.8147E-03     34.5528E-03
            4173            4431     37.8147E-03     34.5528E-03
            4213            4431     37.8147E-03     34.5528E-03
            4172            4431     37.8147E-03     34.5528E-03
            4213            4432     36.7959E-03     35.1190E-03
            4173            4432     36.7959E-03     35.1190E-03
            4214            4432     36.7959E-03     35.1190E-03
            4174            4432     36.7959E-03     35.1190E-03
            4175            4433     31.1244E-03     37.0176E-03
            4215            4433     31.1244E-03     37.0176E-03
            4214            4433     31.1244E-03     37.0176E-03
            4174            4433     31.1244E-03     37.0176E-03
            4216            4434     34.8386E-03     34.6560E-03
            4176            4434     34.8386E-03     34.6560E-03
            4215            4434     34.8386E-03     34.6560E-03
            4175            4434     34.8386E-03     34.6560E-03
            4217            4435     37.1955E-03     35.7889E-03
            4177            4435     37.1955E-03     35.7889E-03
            4216            4435     37.1955E-03     35.7889E-03
            4176            4435     37.1955E-03     35.7889E-03
            4177            4436     35.9761E-03     37.8292E-03
            4218            4436     35.9761E-03     37.8292E-03
            4217            4436     35.9761E-03     37.8292E-03
            4178            4436     35.9761E-03     37.8292E-03
            4179            4437     37.4252E-03     37.2375E-03
            4219            4437     37.4252E-03     37.2375E-03
            4178            4437     37.4252E-03     37.2375E-03
            4218            4437     37.4252E-03     37.2375E-03
            4219            4438     38.3092E-03     38.1480E-03
            4220            4438     38.3092E-03     38.1480E-03
            4180            4438     38.3092E-03     38.1480E-03
            4179            4438     38.3092E-03     38.1480E-03
            4181            4439     39.5711E-03     38.9535E-03
            4220            4439     39.5711E-03     38.9535E-03
            4180            4439     39.5711E-03     38.9535E-03
            4221            4439     39.5711E-03     38.9535E-03
            4222            4440     40.8705E-03     39.5954E-03
            4182            4440     40.8705E-03     39.5954E-03
            4181            4440     40.8705E-03     39.5954E-03
            4221            4440     40.8705E-03     39.5954E-03
            4182            4441     41.2114E-03     42.7063E-03
            4223            4441     41.2114E-03     42.7063E-03
            4222            4441     41.2114E-03     42.7063E-03
            4183            4441     41.2114E-03     42.7063E-03
            4224            4442     46.2733E-03     42.2306E-03
            4184            4442     46.2733E-03     42.2306E-03
            4183            4442     46.2733E-03     42.2306E-03
            4223            4442     46.2733E-03     42.2306E-03
            4184            4443     44.5168E-03     42.4536E-03
            4225            4443     44.5168E-03     42.4536E-03
            4185            4443     44.5168E-03     42.4536E-03
            4224            4443     44.5168E-03     42.4536E-03
            4186            4444     38.1780E-03     42.3924E-03
            4226            4444     38.1780E-03     42.3924E-03
            4185            4444     38.1780E-03     42.3924E-03
            4225            4444     38.1780E-03     42.3924E-03
            4227            4445     16.4814E-03     16.5086E-03
            4228            4445     16.4814E-03     16.5086E-03
            4188            4445     16.4814E-03     16.5086E-03
            4187            4445     16.4814E-03     16.5086E-03
            4228            4446     16.6436E-03     17.1760E-03
            4229            4446     16.6436E-03     17.1760E-03
            4189            4446     16.6436E-03     17.1760E-03
            4188            4446     16.6436E-03     17.1760E-03
            4229            4447     17.6598E-03     17.2440E-03
            4190            4447     17.6598E-03     17.2440E-03
            4230            4447     17.6598E-03     17.2440E-03
            4189            4447     17.6598E-03     17.2440E-03
            4190            4448     17.9161E-03     17.6069E-03
            4231            4448     17.9161E-03     17.6069E-03
            4191            4448     17.9161E-03     17.6069E-03
            4230            4448     17.9161E-03     17.6069E-03
            4192            4449     16.8790E-03     17.9474E-03
            4231            4449     16.8790E-03     17.9474E-03
            4232            4449     16.8790E-03     17.9474E-03
            4191            4449     16.8790E-03     17.9474E-03
            4233            4450     17.0884E-03     17.8425E-03
            4192            4450     17.0884E-03     17.8425E-03
            4193            4450     17.0884E-03     17.8425E-03
            4232            4450     17.0884E-03     17.8425E-03
            4193            4451     17.9173E-03     18.6755E-03
            4194            4451     17.9173E-03     18.6755E-03
            4234            4451     17.9173E-03     18.6755E-03
            4233            4451     17.9173E-03     18.6755E-03
            4234            4452     18.7813E-03     19.4285E-03
            4194            4452     18.7813E-03     19.4285E-03
            4195            4452     18.7813E-03     19.4285E-03
            4235            4452     18.7813E-03     19.4285E-03
            4236            4453     20.0502E-03     20.1147E-03
            4196            4453     20.0502E-03     20.1147E-03
            4235            4453     20.0502E-03     20.1147E-03
            4195            4453     20.0502E-03     20.1147E-03
            4237            4454     21.2452E-03     21.4716E-03
            4197            4454     21.2452E-03     21.4716E-03
            4236            4454     21.2452E-03     21.4716E-03
            4196            4454     21.2452E-03     21.4716E-03
            4198            4455     23.0076E-03     22.8818E-03
            4197            4455     23.0076E-03     22.8818E-03
            4237            4455     23.0076E-03     22.8818E-03
            4238            4455     23.0076E-03     22.8818E-03
            4238            4456     24.6631E-03     24.3570E-03
            4239            4456     24.6631E-03     24.3570E-03
            4199            4456     24.6631E-03     24.3570E-03
            4198            4456     24.6631E-03     24.3570E-03
            4240            4457     25.8067E-03     27.4381E-03
            4199            4457     25.8067E-03     27.4381E-03
            4239            4457     25.8067E-03     27.4381E-03
            4200            4457     25.8067E-03     27.4381E-03
            4200            4458     30.6346E-03     27.8086E-03
            4241            4458     30.6346E-03     27.8086E-03
            4240            4458     30.6346E-03     27.8086E-03
            4201            4458     30.6346E-03     27.8086E-03
            4202            4459     30.6671E-03     29.8440E-03
            4201            4459     30.6671E-03     29.8440E-03
            4242            4459     30.6671E-03     29.8440E-03
            4241            4459     30.6671E-03     29.8440E-03
            4203            4460     26.5548E-03     33.0541E-03
            4202            4460     26.5548E-03     33.0541E-03
            4243            4460     26.5548E-03     33.0541E-03
            4242            4460     26.5548E-03     33.0541E-03
            4243            4461     30.1563E-03     30.8436E-03
            4204            4461     30.1563E-03     30.8436E-03
            4244            4461     30.1563E-03     30.8436E-03
            4203            4461     30.1563E-03     30.8436E-03
            4245            4462     31.9681E-03     31.2827E-03
            4205            4462     31.9681E-03     31.2827E-03
            4204            4462     31.9681E-03     31.2827E-03
            4244            4462     31.9681E-03     31.2827E-03
            4205            4463     30.8126E-03     32.7560E-03
            4206            4463     30.8126E-03     32.7560E-03
            4245            4463     30.8126E-03     32.7560E-03
            4246            4463     30.8126E-03     32.7560E-03
            4206            4464     32.3363E-03     32.6361E-03
            4207            4464     32.3363E-03     32.6361E-03
            4246            4464     32.3363E-03     32.6361E-03
            4247            4464     32.3363E-03     32.6361E-03
            4248            4465     33.5987E-03     33.8830E-03
            4208            4465     33.5987E-03     33.8830E-03
            4247            4465     33.5987E-03     33.8830E-03
            4207            4465     33.5987E-03     33.8830E-03
            4209            4466     34.7308E-03     35.6358E-03
            4208            4466     34.7308E-03     35.6358E-03
            4249            4466     34.7308E-03     35.6358E-03
            4248            4466     34.7308E-03     35.6358E-03
            4209            4467     37.0512E-03     37.1355E-03
            4210            4467     37.0512E-03     37.1355E-03
            4249            4467     37.0512E-03     37.1355E-03
            4250            4467     37.0512E-03     37.1355E-03
            4210            4468     38.9900E-03     38.7506E-03
            4211            4468     38.9900E-03     38.7506E-03
            4250            4468     38.9900E-03     38.7506E-03
            4251            4468     38.9900E-03     38.7506E-03
            4252            4469     40.0784E-03     42.9889E-03
            4211            4469     40.0784E-03     42.9889E-03
            4212            4469     40.0784E-03     42.9889E-03
            4251            4469     40.0784E-03     42.9889E-03
            4212            4470     47.2285E-03     42.7954E-03
            4213            4470     47.2285E-03     42.7954E-03
            4253            4470     47.2285E-03     42.7954E-03
            4252            4470     47.2285E-03     42.7954E-03
            4214            4471     46.4656E-03     45.3274E-03
            4213            4471     46.4656E-03     45.3274E-03
            4253            4471     46.4656E-03     45.3274E-03
            4254            4471     46.4656E-03     45.3274E-03
            4255            4472     39.0632E-03     50.3940E-03
            4214            4472     39.0632E-03     50.3940E-03
            4215            4472     39.0632E-03     50.3940E-03
            4254            4472     39.0632E-03     50.3940E-03
            4255            4473     45.4652E-03     45.8155E-03
            4256            4473     45.4652E-03     45.8155E-03
            4216            4473     45.4652E-03     45.8155E-03
            4215            4473     45.4652E-03     45.8155E-03
            4256            4474     47.9536E-03     45.6314E-03
            4216            4474     47.9536E-03     45.6314E-03
            4257            4474     47.9536E-03     45.6314E-03
            4217            4474     47.9536E-03     45.6314E-03
            4257            4475     44.5919E-03     47.5755E-03
            4258            4475     44.5919E-03     47.5755E-03
            4217            4475     44.5919E-03     47.5755E-03
            4218            4475     44.5919E-03     47.5755E-03
            4219            4476     46.1598E-03     46.1639E-03
            4258            4476     46.1598E-03     46.1639E-03
            4218            4476     46.1598E-03     46.1639E-03
            4259            4476     46.1598E-03     46.1639E-03
            4219            4477     46.9423E-03     47.7143E-03
            4259            4477     46.9423E-03     47.7143E-03
            4220            4477     46.9423E-03     47.7143E-03
            4260            4477     46.9423E-03     47.7143E-03
            4260            4478     48.6316E-03     49.0367E-03
            4221            4478     48.6316E-03     49.0367E-03
            4220            4478     48.6316E-03     49.0367E-03
            4261            4478     48.6316E-03     49.0367E-03
            4222            4479     50.6010E-03     50.1251E-03
            4221            4479     50.6010E-03     50.1251E-03
            4261            4479     50.6010E-03     50.1251E-03
            4262            4479     50.6010E-03     50.1251E-03
            4262            4480     51.3816E-03     55.0297E-03
            4222            4480     51.3816E-03     55.0297E-03
            4263            4480     51.3816E-03     55.0297E-03
            4223            4480     51.3816E-03     55.0297E-03
            4263            4481     59.9045E-03     54.3320E-03
            4224            4481     59.9045E-03     54.3320E-03
            4264            4481     59.9045E-03     54.3320E-03
            4223            4481     59.9045E-03     54.3320E-03
            4264            4482     58.5049E-03     57.1072E-03
            4225            4482     58.5049E-03     57.1072E-03
            4224            4482     58.5049E-03     57.1072E-03
            4265            4482     58.5049E-03     57.1072E-03
            4265            4483     49.9635E-03     58.0069E-03
            4225            4483     49.9635E-03     58.0069E-03
            4226            4483     49.9635E-03     58.0069E-03
            4266            4483     49.9635E-03     58.0069E-03
            4227            4484     12.5674E-03     12.6739E-03
            4228            4484     12.5674E-03     12.6739E-03
            4268            4484     12.5674E-03     12.6739E-03
            4267            4484     12.5674E-03     12.6739E-03
            4229            4485     12.7008E-03     13.1148E-03
            4268            4485     12.7008E-03     13.1148E-03
            4269            4485     12.7008E-03     13.1148E-03
            4228            4485     12.7008E-03     13.1148E-03
            4229            4486     14.5000E-03     13.4555E-03
            4270            4486     14.5000E-03     13.4555E-03
            4269            4486     14.5000E-03     13.4555E-03
            4230            4486     14.5000E-03     13.4555E-03
            4271            4487     14.9619E-03     15.0805E-03
            4230            4487     14.9619E-03     15.0805E-03
            4270            4487     14.9619E-03     15.0805E-03
            4231            4487     14.9619E-03     15.0805E-03
            4231            4488     14.5598E-03     16.5288E-03
            4272            4488     14.5598E-03     16.5288E-03
            4271            4488     14.5598E-03     16.5288E-03
            4232            4488     14.5598E-03     16.5288E-03
            4272            4489     16.1261E-03     16.4213E-03
            4233            4489     16.1261E-03     16.4213E-03
            4273            4489     16.1261E-03     16.4213E-03
            4232            4489     16.1261E-03     16.4213E-03
            4234            4490     16.5171E-03     16.8479E-03
            4273            4490     16.5171E-03     16.8479E-03
            4233            4490     16.5171E-03     16.8479E-03
            4274            4490     16.5171E-03     16.8479E-03
            4234            4491     17.1814E-03     17.6470E-03
            4235            4491     17.1814E-03     17.6470E-03
            4275            4491     17.1814E-03     17.6470E-03
            4274            4491     17.1814E-03     17.6470E-03
            4236            4492     18.9016E-03     19.0472E-03
            4276            4492     18.9016E-03     19.0472E-03
            4235            4492     18.9016E-03     19.0472E-03
            4275            4492     18.9016E-03     19.0472E-03
            4276            4493     20.5928E-03     21.3522E-03
            4236            4493     20.5928E-03     21.3522E-03
            4237            4493     20.5928E-03     21.3522E-03
            4277            4493     20.5928E-03     21.3522E-03
            4278            4494     23.1532E-03     23.6952E-03
            4237            4494     23.1532E-03     23.6952E-03
            4277            4494     23.1532E-03     23.6952E-03
            4238            4494     23.1532E-03     23.6952E-03
            4239            4495     25.7580E-03     25.9744E-03
            4279            4495     25.7580E-03     25.9744E-03
            4238            4495     25.7580E-03     25.9744E-03
            4278            4495     25.7580E-03     25.9744E-03
            4280            4496     27.3401E-03     30.4161E-03
            4239            4496     27.3401E-03     30.4161E-03
            4279            4496     27.3401E-03     30.4161E-03
            4240            4496     27.3401E-03     30.4161E-03
            4281            4497     33.9209E-03     31.3477E-03
            4240            4497     33.9209E-03     31.3477E-03
            4280            4497     33.9209E-03     31.3477E-03
            4241            4497     33.9209E-03     31.3477E-03
            4281            4498     34.1615E-03     34.1519E-03
            4242            4498     34.1615E-03     34.1519E-03
            4282            4498     34.1615E-03     34.1519E-03
            4241            4498     34.1615E-03     34.1519E-03
            4282            4499     29.6457E-03     38.4333E-03
            4243            4499     29.6457E-03     38.4333E-03
            4242            4499     29.6457E-03     38.4333E-03
            4283            4499     29.6457E-03     38.4333E-03
            4243            4500     34.7252E-03     35.0064E-03
            4283            4500     34.7252E-03     35.0064E-03
            4244            4500     34.7252E-03     35.0064E-03
            4284            4500     34.7252E-03     35.0064E-03
            4285            4501     35.6473E-03     34.6853E-03
            4284            4501     35.6473E-03     34.6853E-03
            4245            4501     35.6473E-03     34.6853E-03
            4244            4501     35.6473E-03     34.6853E-03
            4286            4502     33.6879E-03     36.2812E-03
            4285            4502     33.6879E-03     36.2812E-03
            4245            4502     33.6879E-03     36.2812E-03
            4246            4502     33.6879E-03     36.2812E-03
            4246            4503     35.7788E-03     36.6472E-03
            4247            4503     35.7788E-03     36.6472E-03
            4286            4503     35.7788E-03     36.6472E-03
            4287            4503     35.7788E-03     36.6472E-03
            4247            4504     37.4676E-03     38.7835E-03
            4248            4504     37.4676E-03     38.7835E-03
            4287            4504     37.4676E-03     38.7835E-03
            4288            4504     37.4676E-03     38.7835E-03
            4249            4505     39.0399E-03     41.1887E-03
            4288            4505     39.0399E-03     41.1887E-03
            4289            4505     39.0399E-03     41.1887E-03
            4248            4505     39.0399E-03     41.1887E-03
            4290            4506     41.9449E-03     43.4309E-03
            4250            4506     41.9449E-03     43.4309E-03
            4289            4506     41.9449E-03     43.4309E-03
            4249            4506     41.9449E-03     43.4309E-03
            4251            4507     44.6028E-03     45.4443E-03
            4250            4507     44.6028E-03     45.4443E-03
            4291            4507     44.6028E-03     45.4443E-03
            4290            4507     44.6028E-03     45.4443E-03
            4251            4508     45.6358E-03     50.8372E-03
            4252            4508     45.6358E-03     50.8372E-03
            4292            4508     45.6358E-03     50.8372E-03
            4291            4508     45.6358E-03     50.8372E-03
            4293            4509     54.7703E-03     50.9282E-03
            4292            4509     54.7703E-03     50.9282E-03
            4252            4509     54.7703E-03     50.9282E-03
            4253            4509     54.7703E-03     50.9282E-03
            4294            4510     54.4611E-03     54.3907E-03
            4254            4510     54.4611E-03     54.3907E-03
            4253            4510     54.4611E-03     54.3907E-03
            4293            4510     54.4611E-03     54.3907E-03
            4294            4511     46.2159E-03     61.0238E-03
            4254            4511     46.2159E-03     61.0238E-03
            4295            4511     46.2159E-03     61.0238E-03
            4255            4511     46.2159E-03     61.0238E-03
            4295            4512     54.3911E-03     54.6314E-03
            4255            4512     54.3911E-03     54.6314E-03
            4256            4512     54.3911E-03     54.6314E-03
            4296            4512     54.3911E-03     54.6314E-03
            4296            4513     55.6435E-03     53.3254E-03
            4257            4513     55.6435E-03     53.3254E-03
            4297            4513     55.6435E-03     53.3254E-03
            4256            4513     55.6435E-03     53.3254E-03
            4257            4514     50.7916E-03     55.4388E-03
            4297            4514     50.7916E-03     55.4388E-03
            4258            4514     50.7916E-03     55.4388E-03
            4298            4514     50.7916E-03     55.4388E-03
            4298            4515     53.2436E-03     54.2688E-03
            4259            4515     53.2436E-03     54.2688E-03
            4299            4515     53.2436E-03     54.2688E-03
            4258            4515     53.2436E-03     54.2688E-03
            4299            4516     54.1102E-03     56.7508E-03
            4259            4516     54.1102E-03     56.7508E-03
            4300            4516     54.1102E-03     56.7508E-03
            4260            4516     54.1102E-03     56.7508E-03
            4301            4517     56.2473E-03     58.6962E-03
            4300            4517     56.2473E-03     58.6962E-03
            4261            4517     56.2473E-03     58.6962E-03
            4260            4517     56.2473E-03     58.6962E-03
            4261            4518     58.9937E-03     60.0387E-03
            4301            4518     58.9937E-03     60.0387E-03
            4262            4518     58.9937E-03     60.0387E-03
            4302            4518     58.9937E-03     60.0387E-03
            4303            4519     59.4072E-03     66.1149E-03
            4263            4519     59.4072E-03     66.1149E-03
            4262            4519     59.4072E-03     66.1149E-03
            4302            4519     59.4072E-03     66.1149E-03
            4263            4520     70.3423E-03     65.6088E-03
            4303            4520     70.3423E-03     65.6088E-03
            4304            4520     70.3423E-03     65.6088E-03
            4264            4520     70.3423E-03     65.6088E-03
            4305            4521     69.7171E-03     69.6495E-03
            4265            4521     69.7171E-03     69.6495E-03
            4264            4521     69.7171E-03     69.6495E-03
            4304            4521     69.7171E-03     69.6495E-03
            4306            4522     59.3788E-03     70.3391E-03
            4266            4522     59.3788E-03     70.3391E-03
            4305            4522     59.3788E-03     70.3391E-03
            4265            4522     59.3788E-03     70.3391E-03
            4268            4523     7.37977E-03     8.10079E-03
            4307            4523     7.37977E-03     8.10079E-03
            4267            4523     7.37977E-03     8.10079E-03
            4308            4523     7.37977E-03     8.10079E-03
            4308            4524     7.04586E-03     7.13662E-03
            4268            4524     7.04586E-03     7.13662E-03
            4269            4524     7.04586E-03     7.13662E-03
            4309            4524     7.04586E-03     7.13662E-03
            4309            4525     10.8951E-03     9.27226E-03
            4269            4525     10.8951E-03     9.27226E-03
            4310            4525     10.8951E-03     9.27226E-03
            4270            4525     10.8951E-03     9.27226E-03
            4310            4526     13.6922E-03     14.1963E-03
            4270            4526     13.6922E-03     14.1963E-03
            4271            4526     13.6922E-03     14.1963E-03
            4311            4526     13.6922E-03     14.1963E-03
            4312            4527     13.1340E-03     15.0784E-03
            4272            4527     13.1340E-03     15.0784E-03
            4271            4527     13.1340E-03     15.0784E-03
            4311            4527     13.1340E-03     15.0784E-03
            4312            4528     13.3628E-03     12.5291E-03
            4272            4528     13.3628E-03     12.5291E-03
            4273            4528     13.3628E-03     12.5291E-03
            4313            4528     13.3628E-03     12.5291E-03
            4314            4529     13.8957E-03     13.4474E-03
            4273            4529     13.8957E-03     13.4474E-03
            4313            4529     13.8957E-03     13.4474E-03
            4274            4529     13.8957E-03     13.4474E-03
            4314            4530     15.5456E-03     15.4851E-03
            4315            4530     15.5456E-03     15.4851E-03
            4275            4530     15.5456E-03     15.4851E-03
            4274            4530     15.5456E-03     15.4851E-03
            4316            4531     18.1323E-03     18.2152E-03
            4315            4531     18.1323E-03     18.2152E-03
            4275            4531     18.1323E-03     18.2152E-03
            4276            4531     18.1323E-03     18.2152E-03
            4277            4532     20.8578E-03     21.2767E-03
            4276            4532     20.8578E-03     21.2767E-03
            4317            4532     20.8578E-03     21.2767E-03
            4316            4532     20.8578E-03     21.2767E-03
            4318            4533     23.9474E-03     24.4737E-03
            4317            4533     23.9474E-03     24.4737E-03
            4278            4533     23.9474E-03     24.4737E-03
            4277            4533     23.9474E-03     24.4737E-03
            4279            4534     27.3898E-03     27.2830E-03
            4278            4534     27.3898E-03     27.2830E-03
            4319            4534     27.3898E-03     27.2830E-03
            4318            4534     27.3898E-03     27.2830E-03
            4320            4535     29.6472E-03     32.1849E-03
            4280            4535     29.6472E-03     32.1849E-03
            4319            4535     29.6472E-03     32.1849E-03
            4279            4535     29.6472E-03     32.1849E-03
            4280            4536     36.5274E-03     34.3531E-03
            4281            4536     36.5274E-03     34.3531E-03
            4320            4536     36.5274E-03     34.3531E-03
            4321            4536     36.5274E-03     34.3531E-03
            4321            4537     38.7390E-03     38.6164E-03
            4282            4537     38.7390E-03     38.6164E-03
            4322            4537     38.7390E-03     38.6164E-03
            4281            4537     38.7390E-03     38.6164E-03
            4282            4538     33.7248E-03     40.2925E-03
            4323            4538     33.7248E-03     40.2925E-03
            4322            4538     33.7248E-03     40.2925E-03
            4283            4538     33.7248E-03     40.2925E-03
            4283            4539     35.9119E-03     34.3844E-03
            4323            4539     35.9119E-03     34.3844E-03
            4284            4539     35.9119E-03     34.3844E-03
            4324            4539     35.9119E-03     34.3844E-03
            4324            4540     36.6704E-03     35.1401E-03
            4325            4540     36.6704E-03     35.1401E-03
            4284            4540     36.6704E-03     35.1401E-03
            4285            4540     36.6704E-03     35.1401E-03
            4325            4541     36.1560E-03     37.7261E-03
            4286            4541     36.1560E-03     37.7261E-03
            4285            4541     36.1560E-03     37.7261E-03
            4326            4541     36.1560E-03     37.7261E-03
            4327            4542     39.0729E-03     39.2843E-03
            4286            4542     39.0729E-03     39.2843E-03
            4287            4542     39.0729E-03     39.2843E-03
            4326            4542     39.0729E-03     39.2843E-03
            4288            4543     41.3681E-03     42.1453E-03
            4328            4543     41.3681E-03     42.1453E-03
            4327            4543     41.3681E-03     42.1453E-03
            4287            4543     41.3681E-03     42.1453E-03
            4288            4544     43.7624E-03     44.8901E-03
            4289            4544     43.7624E-03     44.8901E-03
            4329            4544     43.7624E-03     44.8901E-03
            4328            4544     43.7624E-03     44.8901E-03
            4290            4545     46.6832E-03     47.7338E-03
            4329            4545     46.6832E-03     47.7338E-03
            4289            4545     46.6832E-03     47.7338E-03
            4330            4545     46.6832E-03     47.7338E-03
            4331            4546     49.9319E-03     49.9764E-03
            4291            4546     49.9319E-03     49.9764E-03
            4330            4546     49.9319E-03     49.9764E-03
            4290            4546     49.9319E-03     49.9764E-03
            4331            4547     51.2952E-03     55.3164E-03
            4292            4547     51.2952E-03     55.3164E-03
            4291            4547     51.2952E-03     55.3164E-03
            4332            4547     51.2952E-03     55.3164E-03
            4293            4548     59.8124E-03     56.5567E-03
            4333            4548     59.8124E-03     56.5567E-03
            4292            4548     59.8124E-03     56.5567E-03
            4332            4548     59.8124E-03     56.5567E-03
            4333            4549     61.7178E-03     61.0856E-03
            4293            4549     61.7178E-03     61.0856E-03
            4334            4549     61.7178E-03     61.0856E-03
            4294            4549     61.7178E-03     61.0856E-03
            4334            4550     54.0077E-03     65.0042E-03
            4335            4550     54.0077E-03     65.0042E-03
            4294            4550     54.0077E-03     65.0042E-03
            4295            4550     54.0077E-03     65.0042E-03
            4295            4551     58.7666E-03     56.8159E-03
            4335            4551     58.7666E-03     56.8159E-03
            4336            4551     58.7666E-03     56.8159E-03
            4296            4551     58.7666E-03     56.8159E-03
            4337            4552     59.2930E-03     56.6630E-03
            4297            4552     59.2930E-03     56.6630E-03
            4296            4552     59.2930E-03     56.6630E-03
            4336            4552     59.2930E-03     56.6630E-03
            4297            4553     56.4002E-03     59.5124E-03
            4337            4553     56.4002E-03     59.5124E-03
            4338            4553     56.4002E-03     59.5124E-03
            4298            4553     56.4002E-03     59.5124E-03
            4338            4554     59.5971E-03     59.8121E-03
            4298            4554     59.5971E-03     59.8121E-03
            4339            4554     59.5971E-03     59.8121E-03
            4299            4554     59.5971E-03     59.8121E-03
            4300            4555     61.2161E-03     62.7513E-03
            4339            4555     61.2161E-03     62.7513E-03
            4340            4555     61.2161E-03     62.7513E-03
            4299            4555     61.2161E-03     62.7513E-03
            4301            4556     63.5923E-03     65.2207E-03
            4340            4556     63.5923E-03     65.2207E-03
            4300            4556     63.5923E-03     65.2207E-03
            4341            4556     63.5923E-03     65.2207E-03
            4302            4557     66.7539E-03     66.8460E-03
            4342            4557     66.7539E-03     66.8460E-03
            4301            4557     66.7539E-03     66.8460E-03
            4341            4557     66.7539E-03     66.8460E-03
            4343            4558     67.3991E-03     72.5109E-03
            4342            4558     67.3991E-03     72.5109E-03
            4303            4558     67.3991E-03     72.5109E-03
            4302            4558     67.3991E-03     72.5109E-03
            4304            4559     77.1268E-03     73.0750E-03
            4303            4559     77.1268E-03     73.0750E-03
            4344            4559     77.1268E-03     73.0750E-03
            4343            4559     77.1268E-03     73.0750E-03
            4344            4560     78.9252E-03     77.9018E-03
            4304            4560     78.9252E-03     77.9018E-03
            4345            4560     78.9252E-03     77.9018E-03
            4305            4560     78.9252E-03     77.9018E-03
            4345            4561     68.6182E-03     77.7099E-03
            4305            4561     68.6182E-03     77.7099E-03
            4306            4561     68.6182E-03     77.7099E-03
            4346            4561     68.6182E-03     77.7099E-03
            5283            5395     24.2164E-03     25.4512E-03
            5290            5395     24.2164E-03     25.4512E-03
            5289            5395     24.2164E-03     25.4512E-03
            5284            5395     24.2164E-03     25.4512E-03
            5290            5396     24.4147E-03     23.9533E-03
            5284            5396     24.4147E-03     23.9533E-03
            5291            5396     24.4147E-03     23.9533E-03
            5285            5396     24.4147E-03     23.9533E-03
            5292            5397     23.8301E-03     24.6117E-03
            5291            5397     23.8301E-03     24.6117E-03
            5286            5397     23.8301E-03     24.6117E-03
            5285            5397     23.8301E-03     24.6117E-03
            5287            5398     24.4430E-03     24.4951E-03
            5292            5398     24.4430E-03     24.4951E-03
            5286            5398     24.4430E-03     24.4951E-03
            5293            5398     24.4430E-03     24.4951E-03
            5288            5399     24.1081E-03     22.6302E-03
            5287            5399     24.1081E-03     22.6302E-03
            5293            5399     24.1081E-03     22.6302E-03
            5294            5399     24.1081E-03     22.6302E-03
            5295            5400     34.1831E-03     34.2021E-03
            5290            5400     34.1831E-03     34.2021E-03
            5296            5400     34.1831E-03     34.2021E-03
            5289            5400     34.1831E-03     34.2021E-03
            5296            5401     35.2570E-03     33.5777E-03
            5297            5401     35.2570E-03     33.5777E-03
            5291            5401     35.2570E-03     33.5777E-03
            5290            5401     35.2570E-03     33.5777E-03
            5297            5402     33.1912E-03     35.6227E-03
            5292            5402     33.1912E-03     35.6227E-03
            5291            5402     33.1912E-03     35.6227E-03
            5298            5402     33.1912E-03     35.6227E-03
            5298            5403     34.6051E-03     34.1914E-03
            5293            5403     34.6051E-03     34.1914E-03
            5292            5403     34.6051E-03     34.1914E-03
            5299            5403     34.6051E-03     34.1914E-03
            5293            5404     33.2615E-03     31.8007E-03
            5300            5404     33.2615E-03     31.8007E-03
            5294            5404     33.2615E-03     31.8007E-03
            5299            5404     33.2615E-03     31.8007E-03
            5301            5405     46.9957E-03     46.3958E-03
            5296            5405     46.9957E-03     46.3958E-03
            5295            5405     46.9957E-03     46.3958E-03
            5302            5405     46.9957E-03     46.3958E-03
            5296            5406     49.7878E-03     46.8030E-03
            5297            5406     49.7878E-03     46.8030E-03
            5302            5406     49.7878E-03     46.8030E-03
            5303            5406     49.7878E-03     46.8030E-03
            5298            5407     46.7816E-03     50.6205E-03
            5304            5407     46.7816E-03     50.6205E-03
            5303            5407     46.7816E-03     50.6205E-03
            5297            5407     46.7816E-03     50.6205E-03
            5299            5408     50.8638E-03     47.6697E-03
            5298            5408     50.8638E-03     47.6697E-03
            5305            5408     50.8638E-03     47.6697E-03
            5304            5408     50.8638E-03     47.6697E-03
            5300            5409     48.3700E-03     45.8378E-03
            5305            5409     48.3700E-03     45.8378E-03
            5306            5409     48.3700E-03     45.8378E-03
            5299            5409     48.3700E-03     45.8378E-03
            5301            5410     59.6568E-03     59.4530E-03
            5302            5410     59.6568E-03     59.4530E-03
            5308            5410     59.6568E-03     59.4530E-03
            5307            5410     59.6568E-03     59.4530E-03
            5302            5411     63.2169E-03     58.5654E-03
            5308            5411     63.2169E-03     58.5654E-03
            5303            5411     63.2169E-03     58.5654E-03
            5309            5411     63.2169E-03     58.5654E-03
            5303            5412     58.1158E-03     63.5934E-03
            5310            5412     58.1158E-03     63.5934E-03
            5304            5412     58.1158E-03     63.5934E-03
            5309            5412     58.1158E-03     63.5934E-03
            5304            5413     65.4784E-03     58.7215E-03
            5311            5413     65.4784E-03     58.7215E-03
            5310            5413     65.4784E-03     58.7215E-03
            5305            5413     65.4784E-03     58.7215E-03
            5311            5414     62.6955E-03     59.3898E-03
            5306            5414     62.6955E-03     59.3898E-03
            5305            5414     62.6955E-03     59.3898E-03
            5312            5414     62.6955E-03     59.3898E-03
            5313            5415     71.4893E-03     71.2113E-03
            5314            5415     71.4893E-03     71.2113E-03
            5308            5415     71.4893E-03     71.2113E-03
            5307            5415     71.4893E-03     71.2113E-03
            5308            5416     73.4762E-03     68.6173E-03
            5315            5416     73.4762E-03     68.6173E-03
            5314            5416     73.4762E-03     68.6173E-03
            5309            5416     73.4762E-03     68.6173E-03
            5315            5417     65.3117E-03     74.2417E-03
            5309            5417     65.3117E-03     74.2417E-03
            5310            5417     65.3117E-03     74.2417E-03
            5316            5417     65.3117E-03     74.2417E-03
            5317            5418     75.6259E-03     68.8537E-03
            5316            5418     75.6259E-03     68.8537E-03
            5311            5418     75.6259E-03     68.8537E-03
            5310            5418     75.6259E-03     68.8537E-03
            5312            5419     73.0617E-03     71.9191E-03
            5317            5419     73.0617E-03     71.9191E-03
            5311            5419     73.0617E-03     71.9191E-03
            5318            5419     73.0617E-03     71.9191E-03
            5314            5420     79.3931E-03     76.7782E-03
            5320            5420     79.3931E-03     76.7782E-03
            5313            5420     79.3931E-03     76.7782E-03
            5319            5420     79.3931E-03     76.7782E-03
            5314            5421     79.4722E-03     74.6211E-03
            5315            5421     79.4722E-03     74.6211E-03
            5320            5421     79.4722E-03     74.6211E-03
            5321            5421     79.4722E-03     74.6211E-03
            5316            5422     72.3965E-03     79.9389E-03
            5321            5422     72.3965E-03     79.9389E-03
            5315            5422     72.3965E-03     79.9389E-03
            5322            5422     72.3965E-03     79.9389E-03
            5323            5423     81.8973E-03     76.1182E-03
            5316            5423     81.8973E-03     76.1182E-03
            5322            5423     81.8973E-03     76.1182E-03
            5317            5423     81.8973E-03     76.1182E-03
            5323            5424     80.9085E-03     80.7047E-03
            5317            5424     80.9085E-03     80.7047E-03
            5318            5424     80.9085E-03     80.7047E-03
            5324            5424     80.9085E-03     80.7047E-03
            6568            6525     987.780E-06     966.273E-06
            6574            6525     987.780E-06     966.273E-06
            6573            6525     987.780E-06     966.273E-06
            6567            6525     987.780E-06     966.273E-06
            6569            6526     988.504E-06     977.527E-06
            6574            6526     988.504E-06     977.527E-06
            6575            6526     988.504E-06     977.527E-06
            6568            6526     988.504E-06     977.527E-06
            6576            6527     973.348E-06     974.642E-06
            6575            6527     973.348E-06     974.642E-06
            6570            6527     973.348E-06     974.642E-06
            6569            6527     973.348E-06     974.642E-06
            6571            6528     978.294E-06     967.050E-06
            6576            6528     978.294E-06     967.050E-06
            6577            6528     978.294E-06     967.050E-06
            6570            6528     978.294E-06     967.050E-06
            6577            6529     973.352E-06     961.760E-06
            6578            6529     973.352E-06     961.760E-06
            6572            6529     973.352E-06     961.760E-06
            6571            6529     973.352E-06     961.760E-06
            6574            6530     939.866E-06     925.796E-06
            6579            6530     939.866E-06     925.796E-06
            6580            6530     939.866E-06     925.796E-06
            6573            6530     939.866E-06     925.796E-06
            6574            6531     937.278E-06     919.843E-06
            6581            6531     937.278E-06     919.843E-06
            6575            6531     937.278E-06     919.843E-06
            6580            6531     937.278E-06     919.843E-06
            6576            6532     901.046E-06     906.230E-06
            6575            6532     901.046E-06     906.230E-06
            6582            6532     901.046E-06     906.230E-06
            6581            6532     901.046E-06     906.230E-06
            6576            6533     897.829E-06     886.997E-06
            6577            6533     897.829E-06     886.997E-06
            6582            6533     897.829E-06     886.997E-06
            6583            6533     897.829E-06     886.997E-06
            6578            6534     888.975E-06     877.610E-06
            6577            6534     888.975E-06     877.610E-06
            6584            6534     888.975E-06     877.610E-06
            6583            6534     888.975E-06     877.610E-06
            6585            6535     878.455E-06     860.587E-06
            6580            6535     878.455E-06     860.587E-06
            6586            6535     878.455E-06     860.587E-06
            6579            6535     878.455E-06     860.587E-06
            6586            6536     861.678E-06     822.795E-06
            6580            6536     861.678E-06     822.795E-06
            6581            6536     861.678E-06     822.795E-06
            6587            6536     861.678E-06     822.795E-06
            6588            6537     782.007E-06     801.057E-06
            6581            6537     782.007E-06     801.057E-06
            6587            6537     782.007E-06     801.057E-06
            6582            6537     782.007E-06     801.057E-06
            6583            6538     761.541E-06     762.714E-06
            6582            6538     761.541E-06     762.714E-06
            6588            6538     761.541E-06     762.714E-06
            6589            6538     761.541E-06     762.714E-06
            6589            6539     749.889E-06     743.214E-06
            6590            6539     749.889E-06     743.214E-06
            6583            6539     749.889E-06     743.214E-06
            6584            6539     749.889E-06     743.214E-06
            6591            6540     796.494E-06     785.104E-06
            6586            6540     796.494E-06     785.104E-06
            6592            6540     796.494E-06     785.104E-06
            6585            6540     796.494E-06     785.104E-06
            6592            6541     766.302E-06     694.753E-06
            6587            6541     766.302E-06     694.753E-06
            6586            6541     766.302E-06     694.753E-06
            6593            6541     766.302E-06     694.753E-06
            6594            6542     630.525E-06     664.498E-06
            6588            6542     630.525E-06     664.498E-06
            6593            6542     630.525E-06     664.498E-06
            6587            6542     630.525E-06     664.498E-06
            6589            6543     584.011E-06     598.129E-06
            6594            6543     584.011E-06     598.129E-06
            6595            6543     584.011E-06     598.129E-06
            6588            6543     584.011E-06     598.129E-06
            6595            6544     554.603E-06     563.142E-06
            6596            6544     554.603E-06     563.142E-06
            6589            6544     554.603E-06     563.142E-06
            6590            6544     554.603E-06     563.142E-06
            6598            6545     757.575E-06     768.728E-06
            6597            6545     757.575E-06     768.728E-06
            6592            6545     757.575E-06     768.728E-06
            6591            6545     757.575E-06     768.728E-06
            6593            6546     695.029E-06     615.553E-06
            6599            6546     695.029E-06     615.553E-06
            6592            6546     695.029E-06     615.553E-06
            6598            6546     695.029E-06     615.553E-06
            6599            6547     465.403E-06     504.841E-06
            6593            6547     465.403E-06     504.841E-06
            6594            6547     465.403E-06     504.841E-06
            6600            6547     465.403E-06     504.841E-06
            6600            6548     372.452E-06     371.058E-06
            6594            6548     372.452E-06     371.058E-06
            6601            6548     372.452E-06     371.058E-06
            6595            6548     372.452E-06     371.058E-06
            6595            6549     324.378E-06     351.833E-06
            6601            6549     324.378E-06     351.833E-06
            6596            6549     324.378E-06     351.833E-06
            6602            6549     324.378E-06     351.833E-06
            6597            6550     911.026E-06     917.507E-06
            6603            6550     911.026E-06     917.507E-06
            6598            6550     911.026E-06     917.507E-06
            6604            6550     911.026E-06     917.507E-06
            6605            6551     729.856E-06     671.989E-06
            6599            6551     729.856E-06     671.989E-06
            6598            6551     729.856E-06     671.989E-06
            6604            6551     729.856E-06     671.989E-06
            6600            6552     425.483E-06     468.954E-06
            6605            6552     425.483E-06     468.954E-06
            6599            6552     425.483E-06     468.954E-06
            6606            6552     425.483E-06     468.954E-06
            6600            6553     293.954E-06     268.611E-06
            6601            6553     293.954E-06     268.611E-06
            6607            6553     293.954E-06     268.611E-06
            6606            6553     293.954E-06     268.611E-06
            6607            6554     236.255E-06     296.341E-06
            6602            6554     236.255E-06     296.341E-06
            6601            6554     236.255E-06     296.341E-06
            6608            6554     236.255E-06     296.341E-06


  Minimum                            228.961E-06     268.611E-06
      At Element                            1784            6607
            Node                              18            6553

  Maximum                            207.466E-03     201.996E-03
      At Element                            2383            2383
            Node                             521             521

           Total                         233.398         236.644


Field Output reported at element nodes for region: A320-1.Region_4
   Computation algorithm: EXTRAPOLATE_COMPUTE_AVERAGE
   Averaged at nodes
   Averaging regions: ODB_REGIONS

   Element Label      Node Label         S.Mises         S.Mises
                                          @Loc 1          @Loc 2
-----------------------------------------------------------------
            5049              13     3.78928E-03     5.11745E-03
            5739              13     3.78928E-03     5.11745E-03
            5829              14     168.150E-06     321.065E-06
            2510              16     4.56959E-03     4.62991E-03
             785              16     4.56959E-03     4.62991E-03
            2493              17     2.42109E-03     3.46272E-03
             802              17     2.42109E-03     3.46272E-03
             856              18     126.456E-06     275.447E-06
             839              19     376.823E-06     444.654E-06
            3392              20     58.1255E-03     59.7587E-03
            2402              20     58.1255E-03     59.7587E-03
            3375              21     103.907E-03     106.510E-03
            2385              21     103.907E-03     106.510E-03
            5175              22     125.218E-03     133.472E-03
            2475              22     125.218E-03     133.472E-03
            5192              23     95.3701E-03     91.2777E-03
            2492              23     95.3701E-03     91.2777E-03
            4364              24     16.3604E-03     16.9499E-03
            5282              24     16.3604E-03     16.9499E-03
            5265              25     72.9024E-03     73.3314E-03
            4347              25     72.9024E-03     73.3314E-03
            5066              26     1.84639E-03     3.00465E-03
            5756              26     1.84639E-03     3.00465E-03
            5846              28     402.706E-06     490.746E-06
            5739             194     858.854E-06     903.700E-06
            5757             194     858.854E-06     903.700E-06
            5775             195     639.943E-06     631.737E-06
            5757             195     639.943E-06     631.737E-06
            5793             196     415.806E-06     419.467E-06
            5775             196     415.806E-06     419.467E-06
            5811             197     231.083E-06     206.395E-06
            5793             197     231.083E-06     206.395E-06
            5829             198     144.394E-06     225.818E-06
            5811             198     144.394E-06     225.818E-06
            2510             289     4.82173E-03     4.89785E-03
             786             289     4.82173E-03     4.89785E-03
             785             289     4.82173E-03     4.89785E-03
            2509             289     4.82173E-03     4.89785E-03
             786             290     5.18282E-03     5.22793E-03
            2508             290     5.18282E-03     5.22793E-03
             787             290     5.18282E-03     5.22793E-03
            2509             290     5.18282E-03     5.22793E-03
            2508             291     5.45143E-03     5.45803E-03
            2507             291     5.45143E-03     5.45803E-03
             788             291     5.45143E-03     5.45803E-03
             787             291     5.45143E-03     5.45803E-03
             788             292     5.70824E-03     5.70223E-03
             789             292     5.70824E-03     5.70223E-03
            2507             292     5.70824E-03     5.70223E-03
            2506             292     5.70824E-03     5.70223E-03
            2505             293     5.87662E-03     5.84363E-03
             790             293     5.87662E-03     5.84363E-03
             789             293     5.87662E-03     5.84363E-03
            2506             293     5.87662E-03     5.84363E-03
             791             294     6.00807E-03     5.95298E-03
            2505             294     6.00807E-03     5.95298E-03
             790             294     6.00807E-03     5.95298E-03
            2504             294     6.00807E-03     5.95298E-03
             792             295     6.10644E-03     6.02630E-03
             791             295     6.10644E-03     6.02630E-03
            2503             295     6.10644E-03     6.02630E-03
            2504             295     6.10644E-03     6.02630E-03
            2502             296     6.18272E-03     6.07481E-03
            2503             296     6.18272E-03     6.07481E-03
             792             296     6.18272E-03     6.07481E-03
             793             296     6.18272E-03     6.07481E-03
            2501             297     6.24528E-03     6.11206E-03
             793             297     6.24528E-03     6.11206E-03
             794             297     6.24528E-03     6.11206E-03
            2502             297     6.24528E-03     6.11206E-03
             795             298     6.28596E-03     6.12318E-03
            2500             298     6.28596E-03     6.12318E-03
             794             298     6.28596E-03     6.12318E-03
            2501             298     6.28596E-03     6.12318E-03
            2499             299     6.29698E-03     6.10770E-03
             795             299     6.29698E-03     6.10770E-03
             796             299     6.29698E-03     6.10770E-03
            2500             299     6.29698E-03     6.10770E-03
             796             300     6.25515E-03     6.03555E-03
             797             300     6.25515E-03     6.03555E-03
            2499             300     6.25515E-03     6.03555E-03
            2498             300     6.25515E-03     6.03555E-03
             797             301     6.10468E-03     5.85641E-03
             798             301     6.10468E-03     5.85641E-03
            2497             301     6.10468E-03     5.85641E-03
            2498             301     6.10468E-03     5.85641E-03
             798             302     5.83315E-03     5.53704E-03
            2497             302     5.83315E-03     5.53704E-03
            2496             302     5.83315E-03     5.53704E-03
             799             302     5.83315E-03     5.53704E-03
            2496             303     5.22506E-03     4.90260E-03
            2495             303     5.22506E-03     4.90260E-03
             800             303     5.22506E-03     4.90260E-03
             799             303     5.22506E-03     4.90260E-03
            2494             304     4.43541E-03     4.01159E-03
             800             304     4.43541E-03     4.01159E-03
             801             304     4.43541E-03     4.01159E-03
            2495             304     4.43541E-03     4.01159E-03
            2493             305     3.25865E-03     3.50704E-03
             801             305     3.25865E-03     3.50704E-03
             802             305     3.25865E-03     3.50704E-03
            2494             305     3.25865E-03     3.50704E-03
             820             306     479.046E-06     530.603E-06
             802             306     479.046E-06     530.603E-06
             838             307     227.867E-06     234.562E-06
             820             307     227.867E-06     234.562E-06
             838             308     89.9879E-06     209.381E-06
             856             308     89.9879E-06     209.381E-06
             856             309     268.860E-06     301.047E-06
             855             309     268.860E-06     301.047E-06
             855             310     419.974E-06     354.583E-06
             854             310     419.974E-06     354.583E-06
             853             311     462.833E-06     404.201E-06
             854             311     462.833E-06     404.201E-06
             852             312     479.815E-06     416.477E-06
             853             312     479.815E-06     416.477E-06
             852             313     469.179E-06     413.608E-06
             851             313     469.179E-06     413.608E-06
             850             314     468.212E-06     414.382E-06
             851             314     468.212E-06     414.382E-06
             849             315     461.560E-06     411.001E-06
             850             315     461.560E-06     411.001E-06
             849             316     458.009E-06     410.776E-06
             848             316     458.009E-06     410.776E-06
             848             317     452.531E-06     408.959E-06
             847             317     452.531E-06     408.959E-06
             846             318     448.344E-06     408.668E-06
             847             318     448.344E-06     408.668E-06
             845             319     443.535E-06     408.171E-06
             846             319     443.535E-06     408.171E-06
             845             320     439.349E-06     408.564E-06
             844             320     439.349E-06     408.564E-06
             843             321     435.460E-06     408.862E-06
             844             321     435.460E-06     408.862E-06
             843             322     430.740E-06     411.416E-06
             842             322     430.740E-06     411.416E-06
             842             323     428.791E-06     411.484E-06
             841             323     428.791E-06     411.484E-06
             840             324     424.514E-06     411.209E-06
             841             324     424.514E-06     411.209E-06
             839             325     397.850E-06     428.792E-06
             840             325     397.850E-06     428.792E-06
             821             326     412.427E-06     413.596E-06
             839             326     412.427E-06     413.596E-06
             803             327     444.605E-06     375.120E-06
             821             327     444.605E-06     375.120E-06
             803             328     398.567E-06     396.516E-06
             785             328     398.567E-06     396.516E-06
            3374             363     33.4866E-03     32.8928E-03
            3392             363     33.4866E-03     32.8928E-03
            3356             364     30.3611E-03     27.7759E-03
            3374             364     30.3611E-03     27.7759E-03
            3356             365     27.4990E-03     25.7896E-03
            3338             365     27.4990E-03     25.7896E-03
            3320             366     26.3270E-03     24.1468E-03
            3338             366     26.3270E-03     24.1468E-03
            3320             367     24.9858E-03     23.1324E-03
            3302             367     24.9858E-03     23.1324E-03
            3284             368     24.5152E-03     22.3792E-03
            3302             368     24.5152E-03     22.3792E-03
            3266             369     23.7151E-03     22.1504E-03
            3284             369     23.7151E-03     22.1504E-03
            3266             370     24.3881E-03     22.0306E-03
            3248             370     24.3881E-03     22.0306E-03
            3230             371     23.0328E-03     23.9584E-03
            3248             371     23.0328E-03     23.9584E-03
            3212             372     24.3274E-03     28.2453E-03
            3230             372     24.3274E-03     28.2453E-03
            3194             373     27.6045E-03     26.9420E-03
            3212             373     27.6045E-03     26.9420E-03
            3194             374     24.6253E-03     22.5520E-03
            3176             374     24.6253E-03     22.5520E-03
            3176             375     22.2052E-03     20.7801E-03
            3158             375     22.2052E-03     20.7801E-03
            3140             376     21.0356E-03     19.3147E-03
            3158             376     21.0356E-03     19.3147E-03
            3140             377     19.9573E-03     18.3799E-03
            3122             377     19.9573E-03     18.3799E-03
            3122             378     19.2315E-03     17.6585E-03
            3104             378     19.2315E-03     17.6585E-03
            3086             379     18.8321E-03     17.2264E-03
            3104             379     18.8321E-03     17.2264E-03
            3068             380     18.3312E-03     17.1325E-03
            3086             380     18.3312E-03     17.1325E-03
            3068             381     18.8932E-03     17.1819E-03
            3050             381     18.8932E-03     17.1819E-03
            3032             382     17.3053E-03     18.7906E-03
            3050             382     17.3053E-03     18.7906E-03
            3014             383     18.3813E-03     21.5984E-03
            3032             383     18.3813E-03     21.5984E-03
            3014             384     21.0138E-03     20.2053E-03
            2996             384     21.0138E-03     20.2053E-03
            2978             385     18.1469E-03     16.6700E-03
            2996             385     18.1469E-03     16.6700E-03
            2978             386     16.2078E-03     15.0910E-03
            2960             386     16.2078E-03     15.0910E-03
            2960             387     15.1648E-03     13.8829E-03
            2942             387     15.1648E-03     13.8829E-03
            2924             388     14.2921E-03     13.1132E-03
            2942             388     14.2921E-03     13.1132E-03
            2906             389     13.7031E-03     12.5358E-03
            2924             389     13.7031E-03     12.5358E-03
            2906             390     13.3896E-03     12.2634E-03
            2888             390     13.3896E-03     12.2634E-03
            2870             391     13.0405E-03     12.2198E-03
            2888             391     13.0405E-03     12.2198E-03
            2870             392     13.4609E-03     12.4625E-03
            2852             392     13.4609E-03     12.4625E-03
            2834             393     12.0603E-03     13.7131E-03
            2852             393     12.0603E-03     13.7131E-03
            2816             394     13.2615E-03     15.3181E-03
            2834             394     13.2615E-03     15.3181E-03
            2816             395     14.9871E-03     14.2296E-03
            2798             395     14.9871E-03     14.2296E-03
            2780             396     12.3294E-03     11.5608E-03
            2798             396     12.3294E-03     11.5608E-03
            2762             397     10.9297E-03     10.1718E-03
            2780             397     10.9297E-03     10.1718E-03
            2744             398     10.0641E-03     9.27749E-03
            2762             398     10.0641E-03     9.27749E-03
            2726             399     9.45633E-03     8.71010E-03
            2744             399     9.45633E-03     8.71010E-03
            2726             400     9.07420E-03     8.34241E-03
            2708             400     9.07420E-03     8.34241E-03
            2690             401     8.91345E-03     8.30467E-03
            2708             401     8.91345E-03     8.30467E-03
            2672             402     8.85752E-03     8.40009E-03
            2690             402     8.85752E-03     8.40009E-03
            2654             403     9.24678E-03     9.01061E-03
            2672             403     9.24678E-03     9.01061E-03
            2636             404     9.02624E-03     10.2023E-03
            2654             404     9.02624E-03     10.2023E-03
            2636             405     9.83921E-03     10.4992E-03
            2618             405     9.83921E-03     10.4992E-03
            2618             406     9.78888E-03     9.40957E-03
            2600             406     9.78888E-03     9.40957E-03
            2582             407     7.94449E-03     7.53418E-03
            2600             407     7.94449E-03     7.53418E-03
            2582             408     7.27898E-03     6.63669E-03
            2564             408     7.27898E-03     6.63669E-03
            2546             409     7.04063E-03     6.45579E-03
            2564             409     7.04063E-03     6.45579E-03
            2528             410     7.29829E-03     6.98701E-03
            2546             410     7.29829E-03     6.98701E-03
            2510             411     8.11476E-03     8.31139E-03
            2528             411     8.11476E-03     8.31139E-03
            3357             440     93.1607E-03     93.1859E-03
            3375             440     93.1607E-03     93.1859E-03
            3339             441     92.1488E-03     91.8751E-03
            3357             441     92.1488E-03     91.8751E-03
            3321             442     90.2636E-03     91.6472E-03
            3339             442     90.2636E-03     91.6472E-03
            3303             443     89.1266E-03     89.4337E-03
            3321             443     89.1266E-03     89.4337E-03
            3285             444     87.1051E-03     88.1918E-03
            3303             444     87.1051E-03     88.1918E-03
            3267             445     85.6041E-03     85.9314E-03
            3285             445     85.6041E-03     85.9314E-03
            3249             446     83.1536E-03     84.2697E-03
            3267             446     83.1536E-03     84.2697E-03
            3231             447     80.7174E-03     80.6233E-03
            3249             447     80.7174E-03     80.6233E-03
            3231             448     77.4771E-03     76.8716E-03
            3213             448     77.4771E-03     76.8716E-03
            3195             449     77.1715E-03     79.8566E-03
            3213             449     77.1715E-03     79.8566E-03
            3195             450     79.9562E-03     80.1198E-03
            3177             450     79.9562E-03     80.1198E-03
            3159             451     78.3344E-03     78.1461E-03
            3177             451     78.3344E-03     78.1461E-03
            3141             452     76.0595E-03     77.2061E-03
            3159             452     76.0595E-03     77.2061E-03
            3123             453     74.3932E-03     74.7717E-03
            3141             453     74.3932E-03     74.7717E-03
            3105             454     72.3312E-03     73.0688E-03
            3123             454     72.3312E-03     73.0688E-03
            3087             455     70.3795E-03     70.9403E-03
            3105             455     70.3795E-03     70.9403E-03
            3087             456     68.1578E-03     68.5993E-03
            3069             456     68.1578E-03     68.5993E-03
            3069             457     65.6559E-03     66.3546E-03
            3051             457     65.6559E-03     66.3546E-03
            3051             458     62.7566E-03     62.7815E-03
            3033             458     62.7566E-03     62.7815E-03
            3015             459     59.3802E-03     58.6864E-03
            3033             459     59.3802E-03     58.6864E-03
            2997             460     59.6963E-03     61.7939E-03
            3015             460     59.6963E-03     61.7939E-03
            2979             461     62.3423E-03     62.6838E-03
            2997             461     62.3423E-03     62.6838E-03
            2961             462     60.0659E-03     59.9011E-03
            2979             462     60.0659E-03     59.9011E-03
            2943             463     57.2767E-03     58.2218E-03
            2961             463     57.2767E-03     58.2218E-03
            2943             464     55.1499E-03     55.4187E-03
            2925             464     55.1499E-03     55.4187E-03
            2925             465     52.7047E-03     53.2840E-03
            2907             465     52.7047E-03     53.2840E-03
            2889             466     50.4278E-03     50.7947E-03
            2907             466     50.4278E-03     50.7947E-03
            2889             467     47.8676E-03     48.2010E-03
            2871             467     47.8676E-03     48.2010E-03
            2853             468     45.1387E-03     45.5360E-03
            2871             468     45.1387E-03     45.5360E-03
            2853             469     41.8971E-03     41.9676E-03
            2835             469     41.8971E-03     41.9676E-03
            2817             470     38.3629E-03     37.6441E-03
            2835             470     38.3629E-03     37.6441E-03
            2817             471     39.3789E-03     40.8032E-03
            2799             471     39.3789E-03     40.8032E-03
            2781             472     41.8659E-03     42.3998E-03
            2799             472     41.8659E-03     42.3998E-03
            2763             473     38.9049E-03     38.7620E-03
            2781             473     38.9049E-03     38.7620E-03
            2745             474     35.5922E-03     36.2927E-03
            2763             474     35.5922E-03     36.2927E-03
            2745             475     32.9928E-03     33.1281E-03
            2727             475     32.9928E-03     33.1281E-03
            2709             476     30.1640E-03     30.5515E-03
            2727             476     30.1640E-03     30.5515E-03
            2709             477     27.5635E-03     27.7029E-03
            2691             477     27.5635E-03     27.7029E-03
            2691             478     24.6685E-03     24.8692E-03
            2673             478     24.6685E-03     24.8692E-03
            2655             479     21.7265E-03     21.7786E-03
            2673             479     21.7265E-03     21.7786E-03
            2637             480     18.1517E-03     18.2758E-03
            2655             480     18.1517E-03     18.2758E-03
            2619             481     14.4922E-03     13.7731E-03
            2637             481     14.4922E-03     13.7731E-03
            2601             482     16.0089E-03     16.5806E-03
            2619             482     16.0089E-03     16.5806E-03
            2601             483     17.8229E-03     18.5367E-03
            2583             483     17.8229E-03     18.5367E-03
            2583             484     13.9063E-03     13.7477E-03
            2565             484     13.9063E-03     13.7477E-03
            2565             485     9.73211E-03     10.1629E-03
            2547             485     9.73211E-03     10.1629E-03
            2547             486     6.30492E-03     6.14988E-03
            2529             486     6.30492E-03     6.14988E-03
            2511             487     2.82875E-03     3.26180E-03
            2529             487     2.82875E-03     3.26180E-03
            2493             488     2.73107E-03     4.20565E-03
            2511             488     2.73107E-03     4.20565E-03
            2403             520     154.919E-03     155.939E-03
            2385             520     154.919E-03     155.939E-03
            2421             521     197.054E-03     197.433E-03
            2403             521     197.054E-03     197.433E-03
            2421             522     194.602E-03     195.045E-03
            2439             522     194.602E-03     195.045E-03
            2457             523     188.603E-03     188.911E-03
            2439             523     188.603E-03     188.911E-03
            2457             524     179.145E-03     184.403E-03
            2475             524     179.145E-03     184.403E-03
            3375             531     99.1280E-03     101.067E-03
            2386             531     99.1280E-03     101.067E-03
            2385             531     99.1280E-03     101.067E-03
            3376             531     99.1280E-03     101.067E-03
            3376             532     91.4152E-03     92.4257E-03
            2387             532     91.4152E-03     92.4257E-03
            2386             532     91.4152E-03     92.4257E-03
            3377             532     91.4152E-03     92.4257E-03
            2388             533     85.5323E-03     86.4015E-03
            3377             533     85.5323E-03     86.4015E-03
            2387             533     85.5323E-03     86.4015E-03
            3378             533     85.5323E-03     86.4015E-03
            2388             534     80.0625E-03     80.9916E-03
            3378             534     80.0625E-03     80.9916E-03
            2389             534     80.0625E-03     80.9916E-03
            3379             534     80.0625E-03     80.9916E-03
            2389             535     75.0124E-03     75.9850E-03
            2390             535     75.0124E-03     75.9850E-03
            3379             535     75.0124E-03     75.9850E-03
            3380             535     75.0124E-03     75.9850E-03
            2391             536     70.1664E-03     71.2279E-03
            2390             536     70.1664E-03     71.2279E-03
            3381             536     70.1664E-03     71.2279E-03
            3380             536     70.1664E-03     71.2279E-03
            3382             537     65.5602E-03     66.6603E-03
            2391             537     65.5602E-03     66.6603E-03
            2392             537     65.5602E-03     66.6603E-03
            3381             537     65.5602E-03     66.6603E-03
            3383             538     61.1286E-03     62.2685E-03
            2393             538     61.1286E-03     62.2685E-03
            2392             538     61.1286E-03     62.2685E-03
            3382             538     61.1286E-03     62.2685E-03
            2394             539     56.9022E-03     58.0452E-03
            2393             539     56.9022E-03     58.0452E-03
            3383             539     56.9022E-03     58.0452E-03
            3384             539     56.9022E-03     58.0452E-03
            3384             540     52.8674E-03     54.0007E-03
            2394             540     52.8674E-03     54.0007E-03
            3385             540     52.8674E-03     54.0007E-03
            2395             540     52.8674E-03     54.0007E-03
            3385             541     49.0417E-03     50.1391E-03
            3386             541     49.0417E-03     50.1391E-03
            2396             541     49.0417E-03     50.1391E-03
            2395             541     49.0417E-03     50.1391E-03
            3387             542     45.4346E-03     46.4663E-03
            2396             542     45.4346E-03     46.4663E-03
            3386             542     45.4346E-03     46.4663E-03
            2397             542     45.4346E-03     46.4663E-03
            2398             543     42.2014E-03     43.0555E-03
            3387             543     42.2014E-03     43.0555E-03
            3388             543     42.2014E-03     43.0555E-03
            2397             543     42.2014E-03     43.0555E-03
            3388             544     41.5049E-03     41.7401E-03
            2398             544     41.5049E-03     41.7401E-03
            3389             544     41.5049E-03     41.7401E-03
            2399             544     41.5049E-03     41.7401E-03
            3389             545     44.2301E-03     44.0271E-03
            3390             545     44.2301E-03     44.0271E-03
            2400             545     44.2301E-03     44.0271E-03
            2399             545     44.2301E-03     44.0271E-03
            3391             546     48.1138E-03     48.2047E-03
            3390             546     48.1138E-03     48.2047E-03
            2401             546     48.1138E-03     48.2047E-03
            2400             546     48.1138E-03     48.2047E-03
            2401             547     54.1014E-03     55.0794E-03
            3392             547     54.1014E-03     55.0794E-03
            2402             547     54.1014E-03     55.0794E-03
            3391             547     54.1014E-03     55.0794E-03
            2420             548     110.026E-03     105.284E-03
            2402             548     110.026E-03     105.284E-03
            2438             549     124.810E-03     121.797E-03
            2420             549     124.810E-03     121.797E-03
            2456             550     112.435E-03     104.919E-03
            2438             550     112.435E-03     104.919E-03
            2456             551     115.699E-03     109.878E-03
            2474             551     115.699E-03     109.878E-03
            2474             552     134.562E-03     134.370E-03
            2492             552     134.562E-03     134.370E-03
            2491             553     96.9211E-03     94.9521E-03
            5192             553     96.9211E-03     94.9521E-03
            5191             553     96.9211E-03     94.9521E-03
            2492             553     96.9211E-03     94.9521E-03
            2491             554     99.4463E-03     99.2235E-03
            2490             554     99.4463E-03     99.2235E-03
            5190             554     99.4463E-03     99.2235E-03
            5191             554     99.4463E-03     99.2235E-03
            5189             555     102.750E-03     102.381E-03
            2490             555     102.750E-03     102.381E-03
            2489             555     102.750E-03     102.381E-03
            5190             555     102.750E-03     102.381E-03
            2488             556     106.164E-03     106.010E-03
            5189             556     106.164E-03     106.010E-03
            5188             556     106.164E-03     106.010E-03
            2489             556     106.164E-03     106.010E-03
            2487             557     108.255E-03     108.039E-03
            5188             557     108.255E-03     108.039E-03
            5187             557     108.255E-03     108.039E-03
            2488             557     108.255E-03     108.039E-03
            2487             558     110.140E-03     109.896E-03
            2486             558     110.140E-03     109.896E-03
            5187             558     110.140E-03     109.896E-03
            5186             558     110.140E-03     109.896E-03
            5186             559     111.926E-03     111.709E-03
            2486             559     111.926E-03     111.709E-03
            2485             559     111.926E-03     111.709E-03
            5185             559     111.926E-03     111.709E-03
            5185             560     113.668E-03     113.550E-03
            5184             560     113.668E-03     113.550E-03
            2485             560     113.668E-03     113.550E-03
            2484             560     113.668E-03     113.550E-03
            2483             561     115.437E-03     115.458E-03
            2484             561     115.437E-03     115.458E-03
            5183             561     115.437E-03     115.458E-03
            5184             561     115.437E-03     115.458E-03
            2482             562     117.118E-03     117.352E-03
            2483             562     117.118E-03     117.352E-03
            5183             562     117.118E-03     117.352E-03
            5182             562     117.118E-03     117.352E-03
            2482             563     118.782E-03     119.236E-03
            5182             563     118.782E-03     119.236E-03
            2481             563     118.782E-03     119.236E-03
            5181             563     118.782E-03     119.236E-03
            2480             564     120.206E-03     120.981E-03
            5180             564     120.206E-03     120.981E-03
            5181             564     120.206E-03     120.981E-03
            2481             564     120.206E-03     120.981E-03
            2480             565     121.571E-03     122.546E-03
            5179             565     121.571E-03     122.546E-03
            2479             565     121.571E-03     122.546E-03
            5180             565     121.571E-03     122.546E-03
            2479             566     122.410E-03     123.845E-03
            5179             566     122.410E-03     123.845E-03
            2478             566     122.410E-03     123.845E-03
            5178             566     122.410E-03     123.845E-03
            2477             567     123.200E-03     124.650E-03
            2478             567     123.200E-03     124.650E-03
            5177             567     123.200E-03     124.650E-03
            5178             567     123.200E-03     124.650E-03
            2477             568     123.143E-03     124.993E-03
            2476             568     123.143E-03     124.993E-03
            5177             568     123.143E-03     124.993E-03
            5176             568     123.143E-03     124.993E-03
            2476             569     123.747E-03     129.253E-03
            5175             569     123.747E-03     129.253E-03
            2475             569     123.747E-03     129.253E-03
            5176             569     123.747E-03     129.253E-03
            5264             604     15.3084E-03     16.8527E-03
            5282             604     15.3084E-03     16.8527E-03
            5264             605     17.5121E-03     20.1317E-03
            5246             605     17.5121E-03     20.1317E-03
            5246             606     21.5506E-03     23.3581E-03
            5228             606     21.5506E-03     23.3581E-03
            5210             607     25.9473E-03     28.7420E-03
            5228             607     25.9473E-03     28.7420E-03
            5210             608     34.0753E-03     35.7656E-03
            5192             608     34.0753E-03     35.7656E-03
            5265             625     77.8781E-03     77.1246E-03
            5247             625     77.8781E-03     77.1246E-03
            5247             626     80.0430E-03     80.0135E-03
            5229             626     80.0430E-03     80.0135E-03
            5229             627     80.6705E-03     82.7383E-03
            5211             627     80.6705E-03     82.7383E-03
            5193             628     81.8177E-03     81.8930E-03
            5211             628     81.8177E-03     81.8930E-03
            5175             629     81.5950E-03     82.9750E-03
            5193             629     81.5950E-03     82.9750E-03
            4365             636     72.2517E-03     75.0609E-03
            4347             636     72.2517E-03     75.0609E-03
            4365             637     75.8418E-03     76.4488E-03
            4383             637     75.8418E-03     76.4488E-03
            4401             638     74.3874E-03     74.4950E-03
            4383             638     74.3874E-03     74.4950E-03
            4401             639     72.2613E-03     73.6912E-03
            4419             639     72.2613E-03     73.6912E-03
            4419             640     70.6974E-03     71.3012E-03
            4437             640     70.6974E-03     71.3012E-03
            4437             641     68.6665E-03     69.5746E-03
            4455             641     68.6665E-03     69.5746E-03
            4455             642     66.8423E-03     67.4724E-03
            4473             642     66.8423E-03     67.4724E-03
            4491             643     64.7356E-03     65.2493E-03
            4473             643     64.7356E-03     65.2493E-03
            4509             644     62.5346E-03     63.0725E-03
            4491             644     62.5346E-03     63.0725E-03
            4509             645     59.9321E-03     59.9579E-03
            4527             645     59.9321E-03     59.9579E-03
            4545             646     56.9022E-03     55.7485E-03
            4527             646     56.9022E-03     55.7485E-03
            4545             647     56.8939E-03     58.6359E-03
            4563             647     56.8939E-03     58.6359E-03
            4563             648     59.0729E-03     59.8919E-03
            4581             648     59.0729E-03     59.8919E-03
            4599             649     57.1408E-03     57.1490E-03
            4581             649     57.1408E-03     57.1490E-03
            4617             650     54.5899E-03     55.7614E-03
            4599             650     54.5899E-03     55.7614E-03
            4635             651     52.6740E-03     53.0747E-03
            4617             651     52.6740E-03     53.0747E-03
            4635             652     50.3294E-03     51.0463E-03
            4653             652     50.3294E-03     51.0463E-03
            4671             653     48.3132E-03     48.6662E-03
            4653             653     48.3132E-03     48.6662E-03
            4671             654     45.9730E-03     46.4019E-03
            4689             654     45.9730E-03     46.4019E-03
            4689             655     43.7097E-03     43.8670E-03
            4707             655     43.7097E-03     43.8670E-03
            4707             656     41.2530E-03     41.4033E-03
            4725             656     41.2530E-03     41.4033E-03
            4743             657     38.4506E-03     38.3045E-03
            4725             657     38.4506E-03     38.3045E-03
            4743             658     35.2078E-03     34.1151E-03
            4761             658     35.2078E-03     34.1151E-03
            4761             659     35.4718E-03     36.7779E-03
            4779             659     35.4718E-03     36.7779E-03
            4779             660     37.3057E-03     38.3154E-03
            4797             660     37.3057E-03     38.3154E-03
            4797             661     34.9353E-03     34.8033E-03
            4815             661     34.9353E-03     34.8033E-03
            4815             662     32.0181E-03     32.7573E-03
            4833             662     32.0181E-03     32.7573E-03
            4851             663     29.7933E-03     29.9171E-03
            4833             663     29.7933E-03     29.9171E-03
            4869             664     27.2709E-03     27.5926E-03
            4851             664     27.2709E-03     27.5926E-03
            4869             665     25.0750E-03     25.0654E-03
            4887             665     25.0750E-03     25.0654E-03
            4887             666     22.6503E-03     22.6556E-03
            4905             666     22.6503E-03     22.6556E-03
            4905             667     20.3615E-03     20.0321E-03
            4923             667     20.3615E-03     20.0321E-03
            4923             668     17.7658E-03     17.3903E-03
            4941             668     17.7658E-03     17.3903E-03
            4941             669     14.6813E-03     14.2409E-03
            4959             669     14.6813E-03     14.2409E-03
            4977             670     13.5479E-03     14.9960E-03
            4959             670     13.5479E-03     14.9960E-03
            4977             671     13.3605E-03     14.5176E-03
            4995             671     13.3605E-03     14.5176E-03
            4995             672     11.0967E-03     10.2523E-03
            5013             672     11.0967E-03     10.2523E-03
            5031             673     8.77533E-03     8.26339E-03
            5013             673     8.77533E-03     8.26339E-03
            5049             674     7.36687E-03     8.29246E-03
            5031             674     7.36687E-03     8.29246E-03
            5266             675     71.4788E-03     71.8045E-03
            4347             675     71.4788E-03     71.8045E-03
            4348             675     71.4788E-03     71.8045E-03
            5265             675     71.4788E-03     71.8045E-03
            5266             676     68.7118E-03     68.9093E-03
            5267             676     68.7118E-03     68.9093E-03
            4348             676     68.7118E-03     68.9093E-03
            4349             676     68.7118E-03     68.9093E-03
            4349             677     65.7594E-03     66.1224E-03
            4350             677     65.7594E-03     66.1224E-03
            5268             677     65.7594E-03     66.1224E-03
            5267             677     65.7594E-03     66.1224E-03
            4351             678     62.6530E-03     63.2052E-03
            5269             678     62.6530E-03     63.2052E-03
            4350             678     62.6530E-03     63.2052E-03
            5268             678     62.6530E-03     63.2052E-03
            5270             679     59.5434E-03     60.2089E-03
            4351             679     59.5434E-03     60.2089E-03
            4352             679     59.5434E-03     60.2089E-03
            5269             679     59.5434E-03     60.2089E-03
            4353             680     56.3876E-03     57.1660E-03
            5271             680     56.3876E-03     57.1660E-03
            5270             680     56.3876E-03     57.1660E-03
            4352             680     56.3876E-03     57.1660E-03
            5272             681     53.2473E-03     54.0957E-03
            5271             681     53.2473E-03     54.0957E-03
            4353             681     53.2473E-03     54.0957E-03
            4354             681     53.2473E-03     54.0957E-03
            4354             682     50.0907E-03     51.0194E-03
            5273             682     50.0907E-03     51.0194E-03
            5272             682     50.0907E-03     51.0194E-03
            4355             682     50.0907E-03     51.0194E-03
            4355             683     46.9270E-03     47.9156E-03
            5273             683     46.9270E-03     47.9156E-03
            5274             683     46.9270E-03     47.9156E-03
            4356             683     46.9270E-03     47.9156E-03
            5275             684     43.7466E-03     44.8105E-03
            5274             684     43.7466E-03     44.8105E-03
            4356             684     43.7466E-03     44.8105E-03
            4357             684     43.7466E-03     44.8105E-03
            5276             685     40.5399E-03     41.6704E-03
            5275             685     40.5399E-03     41.6704E-03
            4358             685     40.5399E-03     41.6704E-03
            4357             685     40.5399E-03     41.6704E-03
            4358             686     37.2996E-03     38.5104E-03
            5277             686     37.2996E-03     38.5104E-03
            4359             686     37.2996E-03     38.5104E-03
            5276             686     37.2996E-03     38.5104E-03
            4360             687     33.9960E-03     35.2833E-03
            5278             687     33.9960E-03     35.2833E-03
            5277             687     33.9960E-03     35.2833E-03
            4359             687     33.9960E-03     35.2833E-03
            5278             688     30.5562E-03     31.9045E-03
            4360             688     30.5562E-03     31.9045E-03
            5279             688     30.5562E-03     31.9045E-03
            4361             688     30.5562E-03     31.9045E-03
            5279             689     26.9312E-03     28.3039E-03
            5280             689     26.9312E-03     28.3039E-03
            4362             689     26.9312E-03     28.3039E-03
            4361             689     26.9312E-03     28.3039E-03
            4362             690     22.9290E-03     24.2107E-03
            5280             690     22.9290E-03     24.2107E-03
            5281             690     22.9290E-03     24.2107E-03
            4363             690     22.9290E-03     24.2107E-03
            5281             691     18.5830E-03     19.4718E-03
            5282             691     18.5830E-03     19.4718E-03
            4364             691     18.5830E-03     19.4718E-03
            4363             691     18.5830E-03     19.4718E-03
            4382             692     22.1377E-03     22.6532E-03
            4364             692     22.1377E-03     22.6532E-03
            4400             693     23.2637E-03     24.7826E-03
            4382             693     23.2637E-03     24.7826E-03
            4418             694     19.1421E-03     21.4193E-03
            4400             694     19.1421E-03     21.4193E-03
            4436             695     17.5518E-03     19.2568E-03
            4418             695     17.5518E-03     19.2568E-03
            4436             696     16.4223E-03     18.2779E-03
            4454             696     16.4223E-03     18.2779E-03
            4472             697     15.7713E-03     17.4984E-03
            4454             697     15.7713E-03     17.4984E-03
            4490             698     15.4770E-03     17.0034E-03
            4472             698     15.4770E-03     17.0034E-03
            4508             699     15.2202E-03     17.0135E-03
            4490             699     15.2202E-03     17.0135E-03
            4526             700     15.6168E-03     16.8113E-03
            4508             700     15.6168E-03     16.8113E-03
            4544             701     15.9858E-03     18.1195E-03
            4526             701     15.9858E-03     18.1195E-03
            4562             702     18.0843E-03     19.7782E-03
            4544             702     18.0843E-03     19.7782E-03
            4580             703     19.6033E-03     19.5481E-03
            4562             703     19.6033E-03     19.5481E-03
            4598             704     16.6934E-03     17.8697E-03
            4580             704     16.6934E-03     17.8697E-03
            4598             705     13.8341E-03     15.2685E-03
            4616             705     13.8341E-03     15.2685E-03
            4616             706     12.6184E-03     13.8006E-03
            4634             706     12.6184E-03     13.8006E-03
            4652             707     11.8412E-03     13.0147E-03
            4634             707     11.8412E-03     13.0147E-03
            4670             708     11.4238E-03     12.4363E-03
            4652             708     11.4238E-03     12.4363E-03
            4670             709     11.1157E-03     12.1166E-03
            4688             709     11.1157E-03     12.1166E-03
            4688             710     11.0745E-03     11.8475E-03
            4706             710     11.0745E-03     11.8475E-03
            4724             711     11.0021E-03     11.9882E-03
            4706             711     11.0021E-03     11.9882E-03
            4742             712     11.3181E-03     11.8739E-03
            4724             712     11.3181E-03     11.8739E-03
            4742             713     11.6966E-03     12.8799E-03
            4760             713     11.6966E-03     12.8799E-03
            4778             714     12.6668E-03     14.2065E-03
            4760             714     12.6668E-03     14.2065E-03
            4778             715     12.0509E-03     13.1641E-03
            4796             715     12.0509E-03     13.1641E-03
            4796             716     9.78545E-03     10.7941E-03
            4814             716     9.78545E-03     10.7941E-03
            4814             717     8.56359E-03     8.96730E-03
            4832             717     8.56359E-03     8.96730E-03
            4832             718     7.73507E-03     8.21054E-03
            4850             718     7.73507E-03     8.21054E-03
            4850             719     7.48267E-03     7.68534E-03
            4868             719     7.48267E-03     7.68534E-03
            4868             720     7.23093E-03     7.42209E-03
            4886             720     7.23093E-03     7.42209E-03
            4904             721     7.24506E-03     7.20764E-03
            4886             721     7.24506E-03     7.20764E-03
            4904             722     7.22122E-03     7.31654E-03
            4922             722     7.22122E-03     7.31654E-03
            4940             723     7.36524E-03     7.25296E-03
            4922             723     7.36524E-03     7.25296E-03
            4958             724     7.70165E-03     7.82201E-03
            4940             724     7.70165E-03     7.82201E-03
            4958             725     7.47238E-03     8.90757E-03
            4976             725     7.47238E-03     8.90757E-03
            4976             726     5.47520E-03     7.93626E-03
            4994             726     5.47520E-03     7.93626E-03
            4994             727     4.58405E-03     5.84647E-03
            5012             727     4.58405E-03     5.84647E-03
            5012             728     5.14461E-03     4.16862E-03
            5030             728     5.14461E-03     4.16862E-03
            5030             729     4.96860E-03     4.12848E-03
            5048             729     4.96860E-03     4.12848E-03
            5066             730     4.19505E-03     5.21201E-03
            5048             730     4.19505E-03     5.21201E-03
            5066             731     1.83613E-03     2.39032E-03
            5065             731     1.83613E-03     2.39032E-03
            5755             731     1.83613E-03     2.39032E-03
            5756             731     1.83613E-03     2.39032E-03
            5754             732     1.86489E-03     1.57868E-03
            5065             732     1.86489E-03     1.57868E-03
            5064             732     1.86489E-03     1.57868E-03
            5755             732     1.86489E-03     1.57868E-03
            5063             733     1.95478E-03     1.35829E-03
            5064             733     1.95478E-03     1.35829E-03
            5753             733     1.95478E-03     1.35829E-03
            5754             733     1.95478E-03     1.35829E-03
            5753             734     2.03544E-03     1.31030E-03
            5063             734     2.03544E-03     1.31030E-03
            5062             734     2.03544E-03     1.31030E-03
            5752             734     2.03544E-03     1.31030E-03
            5061             735     2.10964E-03     1.30921E-03
            5751             735     2.10964E-03     1.30921E-03
            5752             735     2.10964E-03     1.30921E-03
            5062             735     2.10964E-03     1.30921E-03
            5060             736     2.20054E-03     1.35502E-03
            5751             736     2.20054E-03     1.35502E-03
            5750             736     2.20054E-03     1.35502E-03
            5061             736     2.20054E-03     1.35502E-03
            5749             737     2.29543E-03     1.41618E-03
            5059             737     2.29543E-03     1.41618E-03
            5060             737     2.29543E-03     1.41618E-03
            5750             737     2.29543E-03     1.41618E-03
            5748             738     2.39802E-03     1.48871E-03
            5749             738     2.39802E-03     1.48871E-03
            5058             738     2.39802E-03     1.48871E-03
            5059             738     2.39802E-03     1.48871E-03
            5747             739     2.49959E-03     1.57133E-03
            5748             739     2.49959E-03     1.57133E-03
            5058             739     2.49959E-03     1.57133E-03
            5057             739     2.49959E-03     1.57133E-03
            5747             740     2.60648E-03     1.65311E-03
            5056             740     2.60648E-03     1.65311E-03
            5057             740     2.60648E-03     1.65311E-03
            5746             740     2.60648E-03     1.65311E-03
            5746             741     2.70986E-03     1.74451E-03
            5745             741     2.70986E-03     1.74451E-03
            5055             741     2.70986E-03     1.74451E-03
            5056             741     2.70986E-03     1.74451E-03
            5744             742     2.81504E-03     1.82427E-03
            5055             742     2.81504E-03     1.82427E-03
            5054             742     2.81504E-03     1.82427E-03
            5745             742     2.81504E-03     1.82427E-03
            5053             743     2.90293E-03     1.89232E-03
            5743             743     2.90293E-03     1.89232E-03
            5054             743     2.90293E-03     1.89232E-03
            5744             743     2.90293E-03     1.89232E-03
            5053             744     2.95259E-03     1.92880E-03
            5052             744     2.95259E-03     1.92880E-03
            5742             744     2.95259E-03     1.92880E-03
            5743             744     2.95259E-03     1.92880E-03
            5741             745     2.80565E-03     1.76291E-03
            5742             745     2.80565E-03     1.76291E-03
            5051             745     2.80565E-03     1.76291E-03
            5052             745     2.80565E-03     1.76291E-03
            5050             746     2.43664E-03     1.60891E-03
            5051             746     2.43664E-03     1.60891E-03
            5741             746     2.43664E-03     1.60891E-03
            5740             746     2.43664E-03     1.60891E-03
            5739             747     3.01347E-03     3.36378E-03
            5049             747     3.01347E-03     3.36378E-03
            5740             747     3.01347E-03     3.36378E-03
            5050             747     3.01347E-03     3.36378E-03
            5846             787     435.214E-06     468.982E-06
            5828             787     435.214E-06     468.982E-06
            5810             788     457.962E-06     418.842E-06
            5828             788     457.962E-06     418.842E-06
            5792             789     440.561E-06     387.678E-06
            5810             789     440.561E-06     387.678E-06
            5774             790     429.528E-06     387.928E-06
            5792             790     429.528E-06     387.928E-06
            5774             791     382.495E-06     404.617E-06
            5756             791     382.495E-06     404.617E-06
            5846             808     426.643E-06     475.791E-06
            5845             808     426.643E-06     475.791E-06
            5844             809     457.106E-06     455.547E-06
            5845             809     457.106E-06     455.547E-06
            5843             810     465.963E-06     451.206E-06
            5844             810     465.963E-06     451.206E-06
            5842             811     473.349E-06     452.291E-06
            5843             811     473.349E-06     452.291E-06
            5841             812     480.639E-06     453.508E-06
            5842             812     480.639E-06     453.508E-06
            5840             813     487.650E-06     456.670E-06
            5841             813     487.650E-06     456.670E-06
            5840             814     495.146E-06     459.498E-06
            5839             814     495.146E-06     459.498E-06
            5838             815     503.236E-06     463.841E-06
            5839             815     503.236E-06     463.841E-06
            5838             816     510.494E-06     467.410E-06
            5837             816     510.494E-06     467.410E-06
            5836             817     518.516E-06     471.979E-06
            5837             817     518.516E-06     471.979E-06
            5835             818     522.895E-06     473.425E-06
            5836             818     522.895E-06     473.425E-06
            5834             819     526.689E-06     472.999E-06
            5835             819     526.689E-06     472.999E-06
            5834             820     517.696E-06     462.730E-06
            5833             820     517.696E-06     462.730E-06
            5832             821     498.795E-06     436.970E-06
            5833             821     498.795E-06     436.970E-06
            5831             822     442.254E-06     377.919E-06
            5832             822     442.254E-06     377.919E-06
            5830             823     352.824E-06     277.960E-06
            5831             823     352.824E-06     277.960E-06
            5829             824     241.863E-06     272.674E-06
            5830             824     241.863E-06     272.674E-06
             786            1467     396.011E-06     400.337E-06
             804            1467     396.011E-06     400.337E-06
             785            1467     396.011E-06     400.337E-06
             803            1467     396.011E-06     400.337E-06
             804            1468     392.046E-06     404.801E-06
             787            1468     392.046E-06     404.801E-06
             805            1468     392.046E-06     404.801E-06
             786            1468     392.046E-06     404.801E-06
             788            1469     389.698E-06     406.290E-06
             806            1469     389.698E-06     406.290E-06
             805            1469     389.698E-06     406.290E-06
             787            1469     389.698E-06     406.290E-06
             788            1470     388.463E-06     408.875E-06
             806            1470     388.463E-06     408.875E-06
             807            1470     388.463E-06     408.875E-06
             789            1470     388.463E-06     408.875E-06
             790            1471     388.078E-06     412.251E-06
             789            1471     388.078E-06     412.251E-06
             808            1471     388.078E-06     412.251E-06
             807            1471     388.078E-06     412.251E-06
             808            1472     388.374E-06     416.003E-06
             790            1472     388.374E-06     416.003E-06
             809            1472     388.374E-06     416.003E-06
             791            1472     388.374E-06     416.003E-06
             792            1473     389.112E-06     420.057E-06
             791            1473     389.112E-06     420.057E-06
             809            1473     389.112E-06     420.057E-06
             810            1473     389.112E-06     420.057E-06
             811            1474     390.536E-06     424.569E-06
             792            1474     390.536E-06     424.569E-06
             810            1474     390.536E-06     424.569E-06
             793            1474     390.536E-06     424.569E-06
             794            1475     392.276E-06     429.152E-06
             812            1475     392.276E-06     429.152E-06
             793            1475     392.276E-06     429.152E-06
             811            1475     392.276E-06     429.152E-06
             813            1476     395.043E-06     434.480E-06
             794            1476     395.043E-06     434.480E-06
             795            1476     395.043E-06     434.480E-06
             812            1476     395.043E-06     434.480E-06
             796            1477     397.741E-06     439.616E-06
             813            1477     397.741E-06     439.616E-06
             814            1477     397.741E-06     439.616E-06
             795            1477     397.741E-06     439.616E-06
             797            1478     402.545E-06     446.164E-06
             814            1478     402.545E-06     446.164E-06
             815            1478     402.545E-06     446.164E-06
             796            1478     402.545E-06     446.164E-06
             815            1479     406.388E-06     452.296E-06
             797            1479     406.388E-06     452.296E-06
             816            1479     406.388E-06     452.296E-06
             798            1479     406.388E-06     452.296E-06
             799            1480     416.094E-06     461.443E-06
             816            1480     416.094E-06     461.443E-06
             817            1480     416.094E-06     461.443E-06
             798            1480     416.094E-06     461.443E-06
             818            1481     420.052E-06     467.500E-06
             817            1481     420.052E-06     467.500E-06
             800            1481     420.052E-06     467.500E-06
             799            1481     420.052E-06     467.500E-06
             800            1482     418.986E-06     473.869E-06
             801            1482     418.986E-06     473.869E-06
             818            1482     418.986E-06     473.869E-06
             819            1482     418.986E-06     473.869E-06
             819            1483     451.537E-06     506.265E-06
             801            1483     451.537E-06     506.265E-06
             820            1483     451.537E-06     506.265E-06
             802            1483     451.537E-06     506.265E-06
             804            1484     423.540E-06     392.533E-06
             822            1484     423.540E-06     392.533E-06
             821            1484     423.540E-06     392.533E-06
             803            1484     423.540E-06     392.533E-06
             805            1485     397.761E-06     408.517E-06
             804            1485     397.761E-06     408.517E-06
             823            1485     397.761E-06     408.517E-06
             822            1485     397.761E-06     408.517E-06
             823            1486     396.447E-06     403.813E-06
             824            1486     396.447E-06     403.813E-06
             805            1486     396.447E-06     403.813E-06
             806            1486     396.447E-06     403.813E-06
             806            1487     399.075E-06     402.789E-06
             807            1487     399.075E-06     402.789E-06
             824            1487     399.075E-06     402.789E-06
             825            1487     399.075E-06     402.789E-06
             825            1488     399.716E-06     405.852E-06
             826            1488     399.716E-06     405.852E-06
             807            1488     399.716E-06     405.852E-06
             808            1488     399.716E-06     405.852E-06
             809            1489     402.195E-06     407.746E-06
             827            1489     402.195E-06     407.746E-06
             808            1489     402.195E-06     407.746E-06
             826            1489     402.195E-06     407.746E-06
             827            1490     404.850E-06     410.505E-06
             828            1490     404.850E-06     410.505E-06
             809            1490     404.850E-06     410.505E-06
             810            1490     404.850E-06     410.505E-06
             810            1491     407.694E-06     413.528E-06
             829            1491     407.694E-06     413.528E-06
             828            1491     407.694E-06     413.528E-06
             811            1491     407.694E-06     413.528E-06
             830            1492     411.280E-06     417.088E-06
             811            1492     411.280E-06     417.088E-06
             829            1492     411.280E-06     417.088E-06
             812            1492     411.280E-06     417.088E-06
             831            1493     414.754E-06     420.670E-06
             830            1493     414.754E-06     420.670E-06
             813            1493     414.754E-06     420.670E-06
             812            1493     414.754E-06     420.670E-06
             813            1494     419.293E-06     425.227E-06
             832            1494     419.293E-06     425.227E-06
             814            1494     419.293E-06     425.227E-06
             831            1494     419.293E-06     425.227E-06
             815            1495     423.120E-06     429.182E-06
             833            1495     423.120E-06     429.182E-06
             832            1495     423.120E-06     429.182E-06
             814            1495     423.120E-06     429.182E-06
             815            1496     430.100E-06     435.295E-06
             816            1496     430.100E-06     435.295E-06
             834            1496     430.100E-06     435.295E-06
             833            1496     430.100E-06     435.295E-06
             835            1497     435.558E-06     443.660E-06
             816            1497     435.558E-06     443.660E-06
             834            1497     435.558E-06     443.660E-06
             817            1497     435.558E-06     443.660E-06
             835            1498     457.933E-06     457.606E-06
             817            1498     457.933E-06     457.606E-06
             818            1498     457.933E-06     457.606E-06
             836            1498     457.933E-06     457.606E-06
             837            1499     455.381E-06     463.585E-06
             836            1499     455.381E-06     463.585E-06
             819            1499     455.381E-06     463.585E-06
             818            1499     455.381E-06     463.585E-06
             819            1500     328.613E-06     346.597E-06
             838            1500     328.613E-06     346.597E-06
             837            1500     328.613E-06     346.597E-06
             820            1500     328.613E-06     346.597E-06
             821            1501     412.760E-06     412.868E-06
             839            1501     412.760E-06     412.868E-06
             840            1501     412.760E-06     412.868E-06
             822            1501     412.760E-06     412.868E-06
             840            1502     413.939E-06     410.401E-06
             822            1502     413.939E-06     410.401E-06
             841            1502     413.939E-06     410.401E-06
             823            1502     413.939E-06     410.401E-06
             842            1503     415.945E-06     407.905E-06
             841            1503     415.945E-06     407.905E-06
             824            1503     415.945E-06     407.905E-06
             823            1503     415.945E-06     407.905E-06
             842            1504     418.742E-06     406.871E-06
             824            1504     418.742E-06     406.871E-06
             843            1504     418.742E-06     406.871E-06
             825            1504     418.742E-06     406.871E-06
             844            1505     421.925E-06     406.629E-06
             826            1505     421.925E-06     406.629E-06
             825            1505     421.925E-06     406.629E-06
             843            1505     421.925E-06     406.629E-06
             844            1506     425.476E-06     407.019E-06
             826            1506     425.476E-06     407.019E-06
             827            1506     425.476E-06     407.019E-06
             845            1506     425.476E-06     407.019E-06
             846            1507     429.295E-06     407.812E-06
             845            1507     429.295E-06     407.812E-06
             828            1507     429.295E-06     407.812E-06
             827            1507     429.295E-06     407.812E-06
             829            1508     433.454E-06     409.108E-06
             846            1508     433.454E-06     409.108E-06
             847            1508     433.454E-06     409.108E-06
             828            1508     433.454E-06     409.108E-06
             829            1509     437.667E-06     410.745E-06
             847            1509     437.667E-06     410.745E-06
             848            1509     437.667E-06     410.745E-06
             830            1509     437.667E-06     410.745E-06
             830            1510     442.316E-06     412.904E-06
             831            1510     442.316E-06     412.904E-06
             849            1510     442.316E-06     412.904E-06
             848            1510     442.316E-06     412.904E-06
             849            1511     446.672E-06     415.108E-06
             850            1511     446.672E-06     415.108E-06
             832            1511     446.672E-06     415.108E-06
             831            1511     446.672E-06     415.108E-06
             833            1512     451.647E-06     418.008E-06
             850            1512     451.647E-06     418.008E-06
             851            1512     451.647E-06     418.008E-06
             832            1512     451.647E-06     418.008E-06
             834            1513     456.284E-06     420.513E-06
             852            1513     456.284E-06     420.513E-06
             851            1513     456.284E-06     420.513E-06
             833            1513     456.284E-06     420.513E-06
             853            1514     462.717E-06     425.347E-06
             852            1514     462.717E-06     425.347E-06
             834            1514     462.717E-06     425.347E-06
             835            1514     462.717E-06     425.347E-06
             835            1515     467.888E-06     426.779E-06
             854            1515     467.888E-06     426.779E-06
             853            1515     467.888E-06     426.779E-06
             836            1515     467.888E-06     426.779E-06
             836            1516     440.126E-06     399.505E-06
             854            1516     440.126E-06     399.505E-06
             855            1516     440.126E-06     399.505E-06
             837            1516     440.126E-06     399.505E-06
             837            1517     251.190E-06     292.293E-06
             855            1517     251.190E-06     292.293E-06
             838            1517     251.190E-06     292.293E-06
             856            1517     251.190E-06     292.293E-06
            2386            2866     153.785E-03     154.291E-03
            2403            2866     153.785E-03     154.291E-03
            2385            2866     153.785E-03     154.291E-03
            2404            2866     153.785E-03     154.291E-03
            2404            2867     149.136E-03     149.881E-03
            2386            2867     149.136E-03     149.881E-03
            2387            2867     149.136E-03     149.881E-03
            2405            2867     149.136E-03     149.881E-03
            2406            2868     143.870E-03     145.301E-03
            2387            2868     143.870E-03     145.301E-03
            2388            2868     143.870E-03     145.301E-03
            2405            2868     143.870E-03     145.301E-03
            2406            2869     139.782E-03     141.477E-03
            2389            2869     139.782E-03     141.477E-03
            2407            2869     139.782E-03     141.477E-03
            2388            2869     139.782E-03     141.477E-03
            2408            2870     135.932E-03     138.006E-03
            2390            2870     135.932E-03     138.006E-03
            2389            2870     135.932E-03     138.006E-03
            2407            2870     135.932E-03     138.006E-03
            2409            2871     132.787E-03     135.068E-03
            2391            2871     132.787E-03     135.068E-03
            2408            2871     132.787E-03     135.068E-03
            2390            2871     132.787E-03     135.068E-03
            2409            2872     129.927E-03     132.430E-03
            2410            2872     129.927E-03     132.430E-03
            2392            2872     129.927E-03     132.430E-03
            2391            2872     129.927E-03     132.430E-03
            2393            2873     127.508E-03     130.150E-03
            2410            2873     127.508E-03     130.150E-03
            2411            2873     127.508E-03     130.150E-03
            2392            2873     127.508E-03     130.150E-03
            2411            2874     125.400E-03     128.137E-03
            2393            2874     125.400E-03     128.137E-03
            2412            2874     125.400E-03     128.137E-03
            2394            2874     125.400E-03     128.137E-03
            2394            2875     123.658E-03     126.422E-03
            2413            2875     123.658E-03     126.422E-03
            2395            2875     123.658E-03     126.422E-03
            2412            2875     123.658E-03     126.422E-03
            2413            2876     122.246E-03     124.985E-03
            2396            2876     122.246E-03     124.985E-03
            2395            2876     122.246E-03     124.985E-03
            2414            2876     122.246E-03     124.985E-03
            2396            2877     121.146E-03     123.792E-03
            2414            2877     121.146E-03     123.792E-03
            2415            2877     121.146E-03     123.792E-03
            2397            2877     121.146E-03     123.792E-03
            2397            2878     120.188E-03     122.725E-03
            2415            2878     120.188E-03     122.725E-03
            2416            2878     120.188E-03     122.725E-03
            2398            2878     120.188E-03     122.725E-03
            2417            2879     119.276E-03     121.563E-03
            2398            2879     119.276E-03     121.563E-03
            2416            2879     119.276E-03     121.563E-03
            2399            2879     119.276E-03     121.563E-03
            2417            2880     117.004E-03     118.605E-03
            2399            2880     117.004E-03     118.605E-03
            2400            2880     117.004E-03     118.605E-03
            2418            2880     117.004E-03     118.605E-03
            2418            2881     114.539E-03     115.622E-03
            2400            2881     114.539E-03     115.622E-03
            2419            2881     114.539E-03     115.622E-03
            2401            2881     114.539E-03     115.622E-03
            2420            2882     111.953E-03     110.106E-03
            2402            2882     111.953E-03     110.106E-03
            2401            2882     111.953E-03     110.106E-03
            2419            2882     111.953E-03     110.106E-03
            2403            2883     194.573E-03     195.328E-03
            2404            2883     194.573E-03     195.328E-03
            2421            2883     194.573E-03     195.328E-03
            2422            2883     194.573E-03     195.328E-03
            2405            2884     188.642E-03     190.156E-03
            2422            2884     188.642E-03     190.156E-03
            2404            2884     188.642E-03     190.156E-03
            2423            2884     188.642E-03     190.156E-03
            2406            2885     182.971E-03     185.464E-03
            2405            2885     182.971E-03     185.464E-03
            2424            2885     182.971E-03     185.464E-03
            2423            2885     182.971E-03     185.464E-03
            2406            2886     178.762E-03     181.949E-03
            2424            2886     178.762E-03     181.949E-03
            2407            2886     178.762E-03     181.949E-03
            2425            2886     178.762E-03     181.949E-03
            2425            2887     175.391E-03     178.941E-03
            2407            2887     175.391E-03     178.941E-03
            2408            2887     175.391E-03     178.941E-03
            2426            2887     175.391E-03     178.941E-03
            2408            2888     172.698E-03     176.669E-03
            2427            2888     172.698E-03     176.669E-03
            2426            2888     172.698E-03     176.669E-03
            2409            2888     172.698E-03     176.669E-03
            2409            2889     170.386E-03     174.674E-03
            2427            2889     170.386E-03     174.674E-03
            2428            2889     170.386E-03     174.674E-03
            2410            2889     170.386E-03     174.674E-03
            2411            2890     168.469E-03     173.018E-03
            2410            2890     168.469E-03     173.018E-03
            2428            2890     168.469E-03     173.018E-03
            2429            2890     168.469E-03     173.018E-03
            2429            2891     166.825E-03     171.548E-03
            2430            2891     166.825E-03     171.548E-03
            2412            2891     166.825E-03     171.548E-03
            2411            2891     166.825E-03     171.548E-03
            2431            2892     165.460E-03     170.273E-03
            2413            2892     165.460E-03     170.273E-03
            2412            2892     165.460E-03     170.273E-03
            2430            2892     165.460E-03     170.273E-03
            2414            2893     164.329E-03     169.151E-03
            2413            2893     164.329E-03     169.151E-03
            2432            2893     164.329E-03     169.151E-03
            2431            2893     164.329E-03     169.151E-03
            2433            2894     163.452E-03     168.205E-03
            2432            2894     163.452E-03     168.205E-03
            2414            2894     163.452E-03     168.205E-03
            2415            2894     163.452E-03     168.205E-03
            2415            2895     162.573E-03     167.188E-03
            2416            2895     162.573E-03     167.188E-03
            2434            2895     162.573E-03     167.188E-03
            2433            2895     162.573E-03     167.188E-03
            2417            2896     161.802E-03     166.144E-03
            2416            2896     161.802E-03     166.144E-03
            2434            2896     161.802E-03     166.144E-03
            2435            2896     161.802E-03     166.144E-03
            2417            2897     158.606E-03     162.174E-03
            2418            2897     158.606E-03     162.174E-03
            2435            2897     158.606E-03     162.174E-03
            2436            2897     158.606E-03     162.174E-03
            2418            2898     153.161E-03     155.495E-03
            2419            2898     153.161E-03     155.495E-03
            2437            2898     153.161E-03     155.495E-03
            2436            2898     153.161E-03     155.495E-03
            2438            2899     137.725E-03     137.057E-03
            2419            2899     137.725E-03     137.057E-03
            2420            2899     137.725E-03     137.057E-03
            2437            2899     137.725E-03     137.057E-03
            2439            2900     191.765E-03     193.821E-03
            2422            2900     191.765E-03     193.821E-03
            2421            2900     191.765E-03     193.821E-03
            2440            2900     191.765E-03     193.821E-03
            2423            2901     186.567E-03     190.006E-03
            2422            2901     186.567E-03     190.006E-03
            2440            2901     186.567E-03     190.006E-03
            2441            2901     186.567E-03     190.006E-03
            2424            2902     182.067E-03     185.700E-03
            2441            2902     182.067E-03     185.700E-03
            2423            2902     182.067E-03     185.700E-03
            2442            2902     182.067E-03     185.700E-03
            2424            2903     178.894E-03     182.787E-03
            2443            2903     178.894E-03     182.787E-03
            2442            2903     178.894E-03     182.787E-03
            2425            2903     178.894E-03     182.787E-03
            2426            2904     176.581E-03     180.471E-03
            2444            2904     176.581E-03     180.471E-03
            2443            2904     176.581E-03     180.471E-03
            2425            2904     176.581E-03     180.471E-03
            2444            2905     174.424E-03     178.498E-03
            2427            2905     174.424E-03     178.498E-03
            2445            2905     174.424E-03     178.498E-03
            2426            2905     174.424E-03     178.498E-03
            2428            2906     172.632E-03     176.783E-03
            2445            2906     172.632E-03     176.783E-03
            2446            2906     172.632E-03     176.783E-03
            2427            2906     172.632E-03     176.783E-03
            2446            2907     170.994E-03     175.234E-03
            2429            2907     170.994E-03     175.234E-03
            2447            2907     170.994E-03     175.234E-03
            2428            2907     170.994E-03     175.234E-03
            2430            2908     169.578E-03     173.872E-03
            2448            2908     169.578E-03     173.872E-03
            2447            2908     169.578E-03     173.872E-03
            2429            2908     169.578E-03     173.872E-03
            2431            2909     168.337E-03     172.657E-03
            2448            2909     168.337E-03     172.657E-03
            2430            2909     168.337E-03     172.657E-03
            2449            2909     168.337E-03     172.657E-03
            2450            2910     167.330E-03     171.646E-03
            2449            2910     167.330E-03     171.646E-03
            2432            2910     167.330E-03     171.646E-03
            2431            2910     167.330E-03     171.646E-03
            2451            2911     166.592E-03     170.879E-03
            2433            2911     166.592E-03     170.879E-03
            2432            2911     166.592E-03     170.879E-03
            2450            2911     166.592E-03     170.879E-03
            2433            2912     166.405E-03     170.602E-03
            2452            2912     166.405E-03     170.602E-03
            2451            2912     166.405E-03     170.602E-03
            2434            2912     166.405E-03     170.602E-03
            2434            2913     166.371E-03     170.502E-03
            2453            2913     166.371E-03     170.502E-03
            2452            2913     166.371E-03     170.502E-03
            2435            2913     166.371E-03     170.502E-03
            2454            2914     166.247E-03     170.692E-03
            2436            2914     166.247E-03     170.692E-03
            2435            2914     166.247E-03     170.692E-03
            2453            2914     166.247E-03     170.692E-03
            2436            2915     159.657E-03     162.103E-03
            2454            2915     159.657E-03     162.103E-03
            2455            2915     159.657E-03     162.103E-03
            2437            2915     159.657E-03     162.103E-03
            2438            2916     132.751E-03     129.060E-03
            2456            2916     132.751E-03     129.060E-03
            2437            2916     132.751E-03     129.060E-03
            2455            2916     132.751E-03     129.060E-03
            2457            2917     185.876E-03     188.371E-03
            2439            2917     185.876E-03     188.371E-03
            2458            2917     185.876E-03     188.371E-03
            2440            2917     185.876E-03     188.371E-03
            2441            2918     181.849E-03     186.367E-03
            2440            2918     181.849E-03     186.367E-03
            2458            2918     181.849E-03     186.367E-03
            2459            2918     181.849E-03     186.367E-03
            2441            2919     180.205E-03     183.862E-03
            2460            2919     180.205E-03     183.862E-03
            2442            2919     180.205E-03     183.862E-03
            2459            2919     180.205E-03     183.862E-03
            2443            2920     179.015E-03     182.181E-03
            2442            2920     179.015E-03     182.181E-03
            2460            2920     179.015E-03     182.181E-03
            2461            2920     179.015E-03     182.181E-03
            2444            2921     177.642E-03     180.832E-03
            2443            2921     177.642E-03     180.832E-03
            2462            2921     177.642E-03     180.832E-03
            2461            2921     177.642E-03     180.832E-03
            2444            2922     176.416E-03     179.410E-03
            2462            2922     176.416E-03     179.410E-03
            2463            2922     176.416E-03     179.410E-03
            2445            2922     176.416E-03     179.410E-03
            2464            2923     175.139E-03     178.052E-03
            2446            2923     175.139E-03     178.052E-03
            2463            2923     175.139E-03     178.052E-03
            2445            2923     175.139E-03     178.052E-03
            2464            2924     173.936E-03     176.751E-03
            2446            2924     173.936E-03     176.751E-03
            2447            2924     173.936E-03     176.751E-03
            2465            2924     173.936E-03     176.751E-03
            2466            2925     172.777E-03     175.528E-03
            2448            2925     172.777E-03     175.528E-03
            2465            2925     172.777E-03     175.528E-03
            2447            2925     172.777E-03     175.528E-03
            2466            2926     171.730E-03     174.435E-03
            2448            2926     171.730E-03     174.435E-03
            2449            2926     171.730E-03     174.435E-03
            2467            2926     171.730E-03     174.435E-03
            2467            2927     170.817E-03     173.506E-03
            2468            2927     170.817E-03     173.506E-03
            2450            2927     170.817E-03     173.506E-03
            2449            2927     170.817E-03     173.506E-03
            2450            2928     170.136E-03     172.818E-03
            2451            2928     170.136E-03     172.818E-03
            2468            2928     170.136E-03     172.818E-03
            2469            2928     170.136E-03     172.818E-03
            2469            2929     169.896E-03     172.607E-03
            2451            2929     169.896E-03     172.607E-03
            2470            2929     169.896E-03     172.607E-03
            2452            2929     169.896E-03     172.607E-03
            2471            2930     169.855E-03     172.638E-03
            2470            2930     169.855E-03     172.638E-03
            2453            2930     169.855E-03     172.638E-03
            2452            2930     169.855E-03     172.638E-03
            2472            2931     169.603E-03     172.975E-03
            2453            2931     169.603E-03     172.975E-03
            2454            2931     169.603E-03     172.975E-03
            2471            2931     169.603E-03     172.975E-03
            2454            2932     163.068E-03     165.347E-03
            2473            2932     163.068E-03     165.347E-03
            2472            2932     163.068E-03     165.347E-03
            2455            2932     163.068E-03     165.347E-03
            2456            2933     136.200E-03     133.608E-03
            2473            2933     136.200E-03     133.608E-03
            2474            2933     136.200E-03     133.608E-03
            2455            2933     136.200E-03     133.608E-03
            2476            2934     177.718E-03     182.379E-03
            2458            2934     177.718E-03     182.379E-03
            2475            2934     177.718E-03     182.379E-03
            2457            2934     177.718E-03     182.379E-03
            2458            2935     177.536E-03     180.751E-03
            2476            2935     177.536E-03     180.751E-03
            2477            2935     177.536E-03     180.751E-03
            2459            2935     177.536E-03     180.751E-03
            2460            2936     179.151E-03     181.302E-03
            2459            2936     179.151E-03     181.302E-03
            2477            2936     179.151E-03     181.302E-03
            2478            2936     179.151E-03     181.302E-03
            2479            2937     179.548E-03     181.235E-03
            2460            2937     179.548E-03     181.235E-03
            2461            2937     179.548E-03     181.235E-03
            2478            2937     179.548E-03     181.235E-03
            2462            2938     179.393E-03     180.650E-03
            2480            2938     179.393E-03     180.650E-03
            2461            2938     179.393E-03     180.650E-03
            2479            2938     179.393E-03     180.650E-03
            2480            2939     178.928E-03     179.803E-03
            2463            2939     178.928E-03     179.803E-03
            2481            2939     178.928E-03     179.803E-03
            2462            2939     178.928E-03     179.803E-03
            2463            2940     178.234E-03     178.778E-03
            2482            2940     178.234E-03     178.778E-03
            2481            2940     178.234E-03     178.778E-03
            2464            2940     178.234E-03     178.778E-03
            2483            2941     177.412E-03     177.697E-03
            2465            2941     177.412E-03     177.697E-03
            2482            2941     177.412E-03     177.697E-03
            2464            2941     177.412E-03     177.697E-03
            2465            2942     176.549E-03     176.639E-03
            2466            2942     176.549E-03     176.639E-03
            2484            2942     176.549E-03     176.639E-03
            2483            2942     176.549E-03     176.639E-03
            2466            2943     175.675E-03     175.651E-03
            2467            2943     175.675E-03     175.651E-03
            2485            2943     175.675E-03     175.651E-03
            2484            2943     175.675E-03     175.651E-03
            2467            2944     174.840E-03     174.780E-03
            2486            2944     174.840E-03     174.780E-03
            2468            2944     174.840E-03     174.780E-03
            2485            2944     174.840E-03     174.780E-03
            2487            2945     174.081E-03     174.062E-03
            2486            2945     174.081E-03     174.062E-03
            2468            2945     174.081E-03     174.062E-03
            2469            2945     174.081E-03     174.062E-03
            2488            2946     173.167E-03     173.294E-03
            2470            2946     173.167E-03     173.294E-03
            2469            2946     173.167E-03     173.294E-03
            2487            2946     173.167E-03     173.294E-03
            2470            2947     172.304E-03     172.627E-03
            2489            2947     172.304E-03     172.627E-03
            2488            2947     172.304E-03     172.627E-03
            2471            2947     172.304E-03     172.627E-03
            2489            2948     169.029E-03     169.362E-03
            2490            2948     169.029E-03     169.362E-03
            2471            2948     169.029E-03     169.362E-03
            2472            2948     169.029E-03     169.362E-03
            2472            2949     163.759E-03     164.505E-03
            2491            2949     163.759E-03     164.505E-03
            2490            2949     163.759E-03     164.505E-03
            2473            2949     163.759E-03     164.505E-03
            2473            2950     148.016E-03     148.533E-03
            2474            2950     148.016E-03     148.533E-03
            2492            2950     148.016E-03     148.533E-03
            2491            2950     148.016E-03     148.533E-03
            2493            2951     5.31887E-03     5.69565E-03
            2512            2951     5.31887E-03     5.69565E-03
            2494            2951     5.31887E-03     5.69565E-03
            2511            2951     5.31887E-03     5.69565E-03
            2512            2952     8.93708E-03     8.25330E-03
            2494            2952     8.93708E-03     8.25330E-03
            2495            2952     8.93708E-03     8.25330E-03
            2513            2952     8.93708E-03     8.25330E-03
            2496            2953     10.6258E-03     10.0121E-03
            2513            2953     10.6258E-03     10.0121E-03
            2495            2953     10.6258E-03     10.0121E-03
            2514            2953     10.6258E-03     10.0121E-03
            2497            2954     11.5719E-03     11.0326E-03
            2496            2954     11.5719E-03     11.0326E-03
            2515            2954     11.5719E-03     11.0326E-03
            2514            2954     11.5719E-03     11.0326E-03
            2498            2955     11.9956E-03     11.5251E-03
            2515            2955     11.9956E-03     11.5251E-03
            2516            2955     11.9956E-03     11.5251E-03
            2497            2955     11.9956E-03     11.5251E-03
            2498            2956     12.1563E-03     11.7334E-03
            2499            2956     12.1563E-03     11.7334E-03
            2517            2956     12.1563E-03     11.7334E-03
            2516            2956     12.1563E-03     11.7334E-03
            2499            2957     12.1543E-03     11.7871E-03
            2518            2957     12.1543E-03     11.7871E-03
            2517            2957     12.1543E-03     11.7871E-03
            2500            2957     12.1543E-03     11.7871E-03
            2519            2958     12.0835E-03     11.7665E-03
            2518            2958     12.0835E-03     11.7665E-03
            2501            2958     12.0835E-03     11.7665E-03
            2500            2958     12.0835E-03     11.7665E-03
            2502            2959     11.9745E-03     11.7066E-03
            2520            2959     11.9745E-03     11.7066E-03
            2501            2959     11.9745E-03     11.7066E-03
            2519            2959     11.9745E-03     11.7066E-03
            2520            2960     11.8456E-03     11.6285E-03
            2503            2960     11.8456E-03     11.6285E-03
            2521            2960     11.8456E-03     11.6285E-03
            2502            2960     11.8456E-03     11.6285E-03
            2521            2961     11.7004E-03     11.5311E-03
            2522            2961     11.7004E-03     11.5311E-03
            2503            2961     11.7004E-03     11.5311E-03
            2504            2961     11.7004E-03     11.5311E-03
            2504            2962     11.5337E-03     11.4136E-03
            2523            2962     11.5337E-03     11.4136E-03
            2522            2962     11.5337E-03     11.4136E-03
            2505            2962     11.5337E-03     11.4136E-03
            2524            2963     11.3123E-03     11.2403E-03
            2506            2963     11.3123E-03     11.2403E-03
            2523            2963     11.3123E-03     11.2403E-03
            2505            2963     11.3123E-03     11.2403E-03
            2507            2964     11.0238E-03     10.9997E-03
            2506            2964     11.0238E-03     10.9997E-03
            2524            2964     11.0238E-03     10.9997E-03
            2525            2964     11.0238E-03     10.9997E-03
            2526            2965     10.5698E-03     10.6116E-03
            2508            2965     10.5698E-03     10.6116E-03
            2507            2965     10.5698E-03     10.6116E-03
            2525            2965     10.5698E-03     10.6116E-03
            2508            2966     9.98251E-03     10.1582E-03
            2527            2966     9.98251E-03     10.1582E-03
            2526            2966     9.98251E-03     10.1582E-03
            2509            2966     9.98251E-03     10.1582E-03
            2527            2967     8.90578E-03     9.13468E-03
            2528            2967     8.90578E-03     9.13468E-03
            2510            2967     8.90578E-03     9.13468E-03
            2509            2967     8.90578E-03     9.13468E-03
            2530            2968     5.32894E-03     5.64379E-03
            2511            2968     5.32894E-03     5.64379E-03
            2512            2968     5.32894E-03     5.64379E-03
            2529            2968     5.32894E-03     5.64379E-03
            2530            2969     9.42712E-03     9.37032E-03
            2512            2969     9.42712E-03     9.37032E-03
            2513            2969     9.42712E-03     9.37032E-03
            2531            2969     9.42712E-03     9.37032E-03
            2531            2970     11.4751E-03     11.1915E-03
            2513            2970     11.4751E-03     11.1915E-03
            2514            2970     11.4751E-03     11.1915E-03
            2532            2970     11.4751E-03     11.1915E-03
            2515            2971     12.1423E-03     11.8689E-03
            2533            2971     12.1423E-03     11.8689E-03
            2532            2971     12.1423E-03     11.8689E-03
            2514            2971     12.1423E-03     11.8689E-03
            2516            2972     12.3266E-03     12.0472E-03
            2534            2972     12.3266E-03     12.0472E-03
            2533            2972     12.3266E-03     12.0472E-03
            2515            2972     12.3266E-03     12.0472E-03
            2516            2973     12.2256E-03     11.9795E-03
            2535            2973     12.2256E-03     11.9795E-03
            2517            2973     12.2256E-03     11.9795E-03
            2534            2973     12.2256E-03     11.9795E-03
            2517            2974     12.0699E-03     11.8546E-03
            2518            2974     12.0699E-03     11.8546E-03
            2536            2974     12.0699E-03     11.8546E-03
            2535            2974     12.0699E-03     11.8546E-03
            2518            2975     11.8951E-03     11.7090E-03
            2519            2975     11.8951E-03     11.7090E-03
            2536            2975     11.8951E-03     11.7090E-03
            2537            2975     11.8951E-03     11.7090E-03
            2519            2976     11.7347E-03     11.5792E-03
            2520            2976     11.7347E-03     11.5792E-03
            2537            2976     11.7347E-03     11.5792E-03
            2538            2976     11.7347E-03     11.5792E-03
            2539            2977     11.5937E-03     11.4664E-03
            2520            2977     11.5937E-03     11.4664E-03
            2521            2977     11.5937E-03     11.4664E-03
            2538            2977     11.5937E-03     11.4664E-03
            2522            2978     11.4713E-03     11.3751E-03
            2539            2978     11.4713E-03     11.3751E-03
            2521            2978     11.4713E-03     11.3751E-03
            2540            2978     11.4713E-03     11.3751E-03
            2522            2979     11.3557E-03     11.2890E-03
            2540            2979     11.3557E-03     11.2890E-03
            2541            2979     11.3557E-03     11.2890E-03
            2523            2979     11.3557E-03     11.2890E-03
            2524            2980     11.2324E-03     11.2031E-03
            2523            2980     11.2324E-03     11.2031E-03
            2542            2980     11.2324E-03     11.2031E-03
            2541            2980     11.2324E-03     11.2031E-03
            2525            2981     11.0236E-03     11.0218E-03
            2524            2981     11.0236E-03     11.0218E-03
            2543            2981     11.0236E-03     11.0218E-03
            2542            2981     11.0236E-03     11.0218E-03
            2543            2982     10.6575E-03     10.7177E-03
            2544            2982     10.6575E-03     10.7177E-03
            2526            2982     10.6575E-03     10.7177E-03
            2525            2982     10.6575E-03     10.7177E-03
            2526            2983     9.92484E-03     10.0065E-03
            2545            2983     9.92484E-03     10.0065E-03
            2544            2983     9.92484E-03     10.0065E-03
            2527            2983     9.92484E-03     10.0065E-03
            2528            2984     8.35491E-03     8.22357E-03
            2546            2984     8.35491E-03     8.22357E-03
            2545            2984     8.35491E-03     8.22357E-03
            2527            2984     8.35491E-03     8.22357E-03
            2530            2985     7.49239E-03     7.64550E-03
            2548            2985     7.49239E-03     7.64550E-03
            2547            2985     7.49239E-03     7.64550E-03
            2529            2985     7.49239E-03     7.64550E-03
            2548            2986     9.98320E-03     10.3732E-03
            2549            2986     9.98320E-03     10.3732E-03
            2531            2986     9.98320E-03     10.3732E-03
            2530            2986     9.98320E-03     10.3732E-03
            2549            2987     11.9075E-03     12.0535E-03
            2531            2987     11.9075E-03     12.0535E-03
            2550            2987     11.9075E-03     12.0535E-03
            2532            2987     11.9075E-03     12.0535E-03
            2533            2988     12.5335E-03     12.4942E-03
            2551            2988     12.5335E-03     12.4942E-03
            2532            2988     12.5335E-03     12.4942E-03
            2550            2988     12.5335E-03     12.4942E-03
            2551            2989     12.4492E-03     12.3971E-03
            2534            2989     12.4492E-03     12.3971E-03
            2552            2989     12.4492E-03     12.3971E-03
            2533            2989     12.4492E-03     12.3971E-03
            2534            2990     12.2185E-03     12.1634E-03
            2535            2990     12.2185E-03     12.1634E-03
            2552            2990     12.2185E-03     12.1634E-03
            2553            2990     12.2185E-03     12.1634E-03
            2553            2991     11.9438E-03     11.8934E-03
            2554            2991     11.9438E-03     11.8934E-03
            2535            2991     11.9438E-03     11.8934E-03
            2536            2991     11.9438E-03     11.8934E-03
            2537            2992     11.7014E-03     11.6593E-03
            2555            2992     11.7014E-03     11.6593E-03
            2536            2992     11.7014E-03     11.6593E-03
            2554            2992     11.7014E-03     11.6593E-03
            2556            2993     11.5056E-03     11.4690E-03
            2538            2993     11.5056E-03     11.4690E-03
            2537            2993     11.5056E-03     11.4690E-03
            2555            2993     11.5056E-03     11.4690E-03
            2556            2994     11.3570E-03     11.3277E-03
            2539            2994     11.3570E-03     11.3277E-03
            2538            2994     11.3570E-03     11.3277E-03
            2557            2994     11.3570E-03     11.3277E-03
            2558            2995     11.2550E-03     11.2322E-03
            2557            2995     11.2550E-03     11.2322E-03
            2539            2995     11.2550E-03     11.2322E-03
            2540            2995     11.2550E-03     11.2322E-03
            2558            2996     11.1873E-03     11.1746E-03
            2559            2996     11.1873E-03     11.1746E-03
            2541            2996     11.1873E-03     11.1746E-03
            2540            2996     11.1873E-03     11.1746E-03
            2559            2997     11.1271E-03     11.1220E-03
            2542            2997     11.1271E-03     11.1220E-03
            2560            2997     11.1271E-03     11.1220E-03
            2541            2997     11.1271E-03     11.1220E-03
            2543            2998     11.0116E-03     11.0179E-03
            2560            2998     11.0116E-03     11.0179E-03
            2561            2998     11.0116E-03     11.0179E-03
            2542            2998     11.0116E-03     11.0179E-03
            2543            2999     10.6589E-03     10.6187E-03
            2544            2999     10.6589E-03     10.6187E-03
            2562            2999     10.6589E-03     10.6187E-03
            2561            2999     10.6589E-03     10.6187E-03
            2544            3000     9.78346E-03     9.52979E-03
            2563            3000     9.78346E-03     9.52979E-03
            2545            3000     9.78346E-03     9.52979E-03
            2562            3000     9.78346E-03     9.52979E-03
            2546            3001     8.10925E-03     7.61154E-03
            2564            3001     8.10925E-03     7.61154E-03
            2545            3001     8.10925E-03     7.61154E-03
            2563            3001     8.10925E-03     7.61154E-03
            2547            3002     10.2501E-03     10.6344E-03
            2566            3002     10.2501E-03     10.6344E-03
            2548            3002     10.2501E-03     10.6344E-03
            2565            3002     10.2501E-03     10.6344E-03
            2567            3003     11.4347E-03     11.7946E-03
            2566            3003     11.4347E-03     11.7946E-03
            2548            3003     11.4347E-03     11.7946E-03
            2549            3003     11.4347E-03     11.7946E-03
            2567            3004     12.3278E-03     12.6166E-03
            2550            3004     12.3278E-03     12.6166E-03
            2568            3004     12.3278E-03     12.6166E-03
            2549            3004     12.3278E-03     12.6166E-03
            2568            3005     12.4889E-03     12.6833E-03
            2551            3005     12.4889E-03     12.6833E-03
            2550            3005     12.4889E-03     12.6833E-03
            2569            3005     12.4889E-03     12.6833E-03
            2570            3006     12.2966E-03     12.4618E-03
            2552            3006     12.2966E-03     12.4618E-03
            2551            3006     12.2966E-03     12.4618E-03
            2569            3006     12.2966E-03     12.4618E-03
            2570            3007     12.0025E-03     12.1367E-03
            2552            3007     12.0025E-03     12.1367E-03
            2571            3007     12.0025E-03     12.1367E-03
            2553            3007     12.0025E-03     12.1367E-03
            2572            3008     11.6969E-03     11.8186E-03
            2554            3008     11.6969E-03     11.8186E-03
            2571            3008     11.6969E-03     11.8186E-03
            2553            3008     11.6969E-03     11.8186E-03
            2554            3009     11.4402E-03     11.5441E-03
            2572            3009     11.4402E-03     11.5441E-03
            2555            3009     11.4402E-03     11.5441E-03
            2573            3009     11.4402E-03     11.5441E-03
            2556            3010     11.2339E-03     11.3228E-03
            2574            3010     11.2339E-03     11.3228E-03
            2555            3010     11.2339E-03     11.3228E-03
            2573            3010     11.2339E-03     11.3228E-03
            2556            3011     11.0883E-03     11.1605E-03
            2557            3011     11.0883E-03     11.1605E-03
            2574            3011     11.0883E-03     11.1605E-03
            2575            3011     11.0883E-03     11.1605E-03
            2575            3012     10.9929E-03     11.0490E-03
            2557            3012     10.9929E-03     11.0490E-03
            2576            3012     10.9929E-03     11.0490E-03
            2558            3012     10.9929E-03     11.0490E-03
            2577            3013     10.9481E-03     10.9870E-03
            2558            3013     10.9481E-03     10.9870E-03
            2559            3013     10.9481E-03     10.9870E-03
            2576            3013     10.9481E-03     10.9870E-03
            2560            3014     10.9152E-03     10.9349E-03
            2578            3014     10.9152E-03     10.9349E-03
            2559            3014     10.9152E-03     10.9349E-03
            2577            3014     10.9152E-03     10.9349E-03
            2561            3015     10.8504E-03     10.8425E-03
            2560            3015     10.8504E-03     10.8425E-03
            2579            3015     10.8504E-03     10.8425E-03
            2578            3015     10.8504E-03     10.8425E-03
            2579            3016     10.5898E-03     10.4857E-03
            2580            3016     10.5898E-03     10.4857E-03
            2562            3016     10.5898E-03     10.4857E-03
            2561            3016     10.5898E-03     10.4857E-03
            2581            3017     9.76618E-03     9.46118E-03
            2580            3017     9.76618E-03     9.46118E-03
            2563            3017     9.76618E-03     9.46118E-03
            2562            3017     9.76618E-03     9.46118E-03
            2582            3018     8.22155E-03     7.68584E-03
            2563            3018     8.22155E-03     7.68584E-03
            2581            3018     8.22155E-03     7.68584E-03
            2564            3018     8.22155E-03     7.68584E-03
            2583            3019     13.5809E-03     13.6417E-03
            2565            3019     13.5809E-03     13.6417E-03
            2566            3019     13.5809E-03     13.6417E-03
            2584            3019     13.5809E-03     13.6417E-03
            2584            3020     12.9425E-03     13.2240E-03
            2567            3020     12.9425E-03     13.2240E-03
            2566            3020     12.9425E-03     13.2240E-03
            2585            3020     12.9425E-03     13.2240E-03
            2585            3021     12.3769E-03     12.7558E-03
            2586            3021     12.3769E-03     12.7558E-03
            2568            3021     12.3769E-03     12.7558E-03
            2567            3021     12.3769E-03     12.7558E-03
            2569            3022     12.0752E-03     12.5040E-03
            2568            3022     12.0752E-03     12.5040E-03
            2587            3022     12.0752E-03     12.5040E-03
            2586            3022     12.0752E-03     12.5040E-03
            2569            3023     11.8647E-03     12.2273E-03
            2570            3023     11.8647E-03     12.2273E-03
            2588            3023     11.8647E-03     12.2273E-03
            2587            3023     11.8647E-03     12.2273E-03
            2571            3024     11.5776E-03     11.9068E-03
            2588            3024     11.5776E-03     11.9068E-03
            2570            3024     11.5776E-03     11.9068E-03
            2589            3024     11.5776E-03     11.9068E-03
            2571            3025     11.3239E-03     11.6141E-03
            2590            3025     11.3239E-03     11.6141E-03
            2572            3025     11.3239E-03     11.6141E-03
            2589            3025     11.3239E-03     11.6141E-03
            2591            3026     11.0901E-03     11.3434E-03
            2572            3026     11.0901E-03     11.3434E-03
            2590            3026     11.0901E-03     11.3434E-03
            2573            3026     11.0901E-03     11.3434E-03
            2573            3027     10.9033E-03     11.1210E-03
            2592            3027     10.9033E-03     11.1210E-03
            2574            3027     10.9033E-03     11.1210E-03
            2591            3027     10.9033E-03     11.1210E-03
            2574            3028     10.7595E-03     10.9380E-03
            2593            3028     10.7595E-03     10.9380E-03
            2592            3028     10.7595E-03     10.9380E-03
            2575            3028     10.7595E-03     10.9380E-03
            2576            3029     10.6650E-03     10.8045E-03
            2575            3029     10.6650E-03     10.8045E-03
            2594            3029     10.6650E-03     10.8045E-03
            2593            3029     10.6650E-03     10.8045E-03
            2576            3030     10.6020E-03     10.6974E-03
            2594            3030     10.6020E-03     10.6974E-03
            2595            3030     10.6020E-03     10.6974E-03
            2577            3030     10.6020E-03     10.6974E-03
            2596            3031     10.5708E-03     10.6195E-03
            2577            3031     10.5708E-03     10.6195E-03
            2578            3031     10.5708E-03     10.6195E-03
            2595            3031     10.5708E-03     10.6195E-03
            2597            3032     10.4972E-03     10.4741E-03
            2596            3032     10.4972E-03     10.4741E-03
            2579            3032     10.4972E-03     10.4741E-03
            2578            3032     10.4972E-03     10.4741E-03
            2580            3033     10.3581E-03     10.2690E-03
            2579            3033     10.3581E-03     10.2690E-03
            2597            3033     10.3581E-03     10.2690E-03
            2598            3033     10.3581E-03     10.2690E-03
            2599            3034     9.97931E-03     9.80369E-03
            2598            3034     9.97931E-03     9.80369E-03
            2580            3034     9.97931E-03     9.80369E-03
            2581            3034     9.97931E-03     9.80369E-03
            2581            3035     8.80520E-03     8.47950E-03
            2599            3035     8.80520E-03     8.47950E-03
            2582            3035     8.80520E-03     8.47950E-03
            2600            3035     8.80520E-03     8.47950E-03
            2584            3036     15.9670E-03     16.6626E-03
            2601            3036     15.9670E-03     16.6626E-03
            2602            3036     15.9670E-03     16.6626E-03
            2583            3036     15.9670E-03     16.6626E-03
            2602            3037     13.0447E-03     13.7612E-03
            2603            3037     13.0447E-03     13.7612E-03
            2584            3037     13.0447E-03     13.7612E-03
            2585            3037     13.0447E-03     13.7612E-03
            2585            3038     11.8175E-03     12.5394E-03
            2603            3038     11.8175E-03     12.5394E-03
            2586            3038     11.8175E-03     12.5394E-03
            2604            3038     11.8175E-03     12.5394E-03
            2587            3039     11.4869E-03     12.1284E-03
            2604            3039     11.4869E-03     12.1284E-03
            2605            3039     11.4869E-03     12.1284E-03
            2586            3039     11.4869E-03     12.1284E-03
            2605            3040     11.2396E-03     11.8229E-03
            2587            3040     11.2396E-03     11.8229E-03
            2588            3040     11.2396E-03     11.8229E-03
            2606            3040     11.2396E-03     11.8229E-03
            2607            3041     11.0636E-03     11.5850E-03
            2606            3041     11.0636E-03     11.5850E-03
            2589            3041     11.0636E-03     11.5850E-03
            2588            3041     11.0636E-03     11.5850E-03
            2589            3042     10.8663E-03     11.3277E-03
            2590            3042     10.8663E-03     11.3277E-03
            2608            3042     10.8663E-03     11.3277E-03
            2607            3042     10.8663E-03     11.3277E-03
            2608            3043     10.6839E-03     11.0925E-03
            2609            3043     10.6839E-03     11.0925E-03
            2590            3043     10.6839E-03     11.0925E-03
            2591            3043     10.6839E-03     11.0925E-03
            2609            3044     10.5196E-03     10.8678E-03
            2591            3044     10.5196E-03     10.8678E-03
            2592            3044     10.5196E-03     10.8678E-03
            2610            3044     10.5196E-03     10.8678E-03
            2593            3045     10.3830E-03     10.6745E-03
            2610            3045     10.3830E-03     10.6745E-03
            2592            3045     10.3830E-03     10.6745E-03
            2611            3045     10.3830E-03     10.6745E-03
            2594            3046     10.2743E-03     10.5000E-03
            2611            3046     10.2743E-03     10.5000E-03
            2593            3046     10.2743E-03     10.5000E-03
            2612            3046     10.2743E-03     10.5000E-03
            2595            3047     10.1902E-03     10.3487E-03
            2613            3047     10.1902E-03     10.3487E-03
            2612            3047     10.1902E-03     10.3487E-03
            2594            3047     10.1902E-03     10.3487E-03
            2595            3048     10.1031E-03     10.1813E-03
            2613            3048     10.1031E-03     10.1813E-03
            2614            3048     10.1031E-03     10.1813E-03
            2596            3048     10.1031E-03     10.1813E-03
            2597            3049     10.0233E-03     10.0078E-03
            2596            3049     10.0233E-03     10.0078E-03
            2614            3049     10.0233E-03     10.0078E-03
            2615            3049     10.0233E-03     10.0078E-03
            2598            3050     9.88262E-03     9.76421E-03
            2597            3050     9.88262E-03     9.76421E-03
            2615            3050     9.88262E-03     9.76421E-03
            2616            3050     9.88262E-03     9.76421E-03
            2598            3051     9.92875E-03     9.70851E-03
            2617            3051     9.92875E-03     9.70851E-03
            2616            3051     9.92875E-03     9.70851E-03
            2599            3051     9.92875E-03     9.70851E-03
            2617            3052     9.94009E-03     9.61381E-03
            2618            3052     9.94009E-03     9.61381E-03
            2600            3052     9.94009E-03     9.61381E-03
            2599            3052     9.94009E-03     9.61381E-03
            2620            3053     15.6995E-03     15.8797E-03
            2619            3053     15.6995E-03     15.8797E-03
            2601            3053     15.6995E-03     15.8797E-03
            2602            3053     15.6995E-03     15.8797E-03
            2621            3054     15.2065E-03     15.0448E-03
            2603            3054     15.2065E-03     15.0448E-03
            2620            3054     15.2065E-03     15.0448E-03
            2602            3054     15.2065E-03     15.0448E-03
            2621            3055     15.1121E-03     14.9877E-03
            2603            3055     15.1121E-03     14.9877E-03
            2604            3055     15.1121E-03     14.9877E-03
            2622            3055     15.1121E-03     14.9877E-03
            2605            3056     15.1138E-03     15.0222E-03
            2604            3056     15.1138E-03     15.0222E-03
            2622            3056     15.1138E-03     15.0222E-03
            2623            3056     15.1138E-03     15.0222E-03
            2605            3057     14.9522E-03     14.9130E-03
            2606            3057     14.9522E-03     14.9130E-03
            2624            3057     14.9522E-03     14.9130E-03
            2623            3057     14.9522E-03     14.9130E-03
            2607            3058     14.7120E-03     14.6995E-03
            2624            3058     14.7120E-03     14.6995E-03
            2606            3058     14.7120E-03     14.6995E-03
            2625            3058     14.7120E-03     14.6995E-03
            2608            3059     14.3539E-03     14.3624E-03
            2625            3059     14.3539E-03     14.3624E-03
            2626            3059     14.3539E-03     14.3624E-03
            2607            3059     14.3539E-03     14.3624E-03
            2627            3060     13.9431E-03     13.9621E-03
            2609            3060     13.9431E-03     13.9621E-03
            2626            3060     13.9431E-03     13.9621E-03
            2608            3060     13.9431E-03     13.9621E-03
            2610            3061     13.4979E-03     13.5205E-03
            2627            3061     13.4979E-03     13.5205E-03
            2628            3061     13.4979E-03     13.5205E-03
            2609            3061     13.4979E-03     13.5205E-03
            2610            3062     13.0465E-03     13.0672E-03
            2628            3062     13.0465E-03     13.0672E-03
            2629            3062     13.0465E-03     13.0672E-03
            2611            3062     13.0465E-03     13.0672E-03
            2611            3063     12.6013E-03     12.6159E-03
            2629            3063     12.6013E-03     12.6159E-03
            2630            3063     12.6013E-03     12.6159E-03
            2612            3063     12.6013E-03     12.6159E-03
            2613            3064     12.1726E-03     12.1791E-03
            2630            3064     12.1726E-03     12.1791E-03
            2631            3064     12.1726E-03     12.1791E-03
            2612            3064     12.1726E-03     12.1791E-03
            2613            3065     11.7387E-03     11.7320E-03
            2614            3065     11.7387E-03     11.7320E-03
            2631            3065     11.7387E-03     11.7320E-03
            2632            3065     11.7387E-03     11.7320E-03
            2633            3066     11.3246E-03     11.3200E-03
            2614            3066     11.3246E-03     11.3200E-03
            2632            3066     11.3246E-03     11.3200E-03
            2615            3066     11.3246E-03     11.3200E-03
            2615            3067     10.8446E-03     10.8390E-03
            2633            3067     10.8446E-03     10.8390E-03
            2634            3067     10.8446E-03     10.8390E-03
            2616            3067     10.8446E-03     10.8390E-03
            2617            3068     10.4559E-03     10.5512E-03
            2634            3068     10.4559E-03     10.5512E-03
            2635            3068     10.4559E-03     10.5512E-03
            2616            3068     10.4559E-03     10.5512E-03
            2635            3069     10.0989E-03     10.5357E-03
            2636            3069     10.0989E-03     10.5357E-03
            2618            3069     10.0989E-03     10.5357E-03
            2617            3069     10.0989E-03     10.5357E-03
            2638            3070     16.1674E-03     15.3789E-03
            2637            3070     16.1674E-03     15.3789E-03
            2619            3070     16.1674E-03     15.3789E-03
            2620            3070     16.1674E-03     15.3789E-03
            2639            3071     18.5931E-03     17.7204E-03
            2620            3071     18.5931E-03     17.7204E-03
            2621            3071     18.5931E-03     17.7204E-03
            2638            3071     18.5931E-03     17.7204E-03
            2621            3072     19.5569E-03     18.7161E-03
            2640            3072     19.5569E-03     18.7161E-03
            2622            3072     19.5569E-03     18.7161E-03
            2639            3072     19.5569E-03     18.7161E-03
            2640            3073     19.7246E-03     18.9900E-03
            2641            3073     19.7246E-03     18.9900E-03
            2622            3073     19.7246E-03     18.9900E-03
            2623            3073     19.7246E-03     18.9900E-03
            2624            3074     19.4643E-03     18.8278E-03
            2641            3074     19.4643E-03     18.8278E-03
            2642            3074     19.4643E-03     18.8278E-03
            2623            3074     19.4643E-03     18.8278E-03
            2642            3075     18.9194E-03     18.3745E-03
            2625            3075     18.9194E-03     18.3745E-03
            2624            3075     18.9194E-03     18.3745E-03
            2643            3075     18.9194E-03     18.3745E-03
            2644            3076     18.2040E-03     17.7412E-03
            2626            3076     18.2040E-03     17.7412E-03
            2625            3076     18.2040E-03     17.7412E-03
            2643            3076     18.2040E-03     17.7412E-03
            2645            3077     17.3883E-03     16.9930E-03
            2626            3077     17.3883E-03     16.9930E-03
            2644            3077     17.3883E-03     16.9930E-03
            2627            3077     17.3883E-03     16.9930E-03
            2645            3078     16.5235E-03     16.1951E-03
            2628            3078     16.5235E-03     16.1951E-03
            2627            3078     16.5235E-03     16.1951E-03
            2646            3078     16.5235E-03     16.1951E-03
            2646            3079     15.6577E-03     15.3866E-03
            2647            3079     15.6577E-03     15.3866E-03
            2629            3079     15.6577E-03     15.3866E-03
            2628            3079     15.6577E-03     15.3866E-03
            2630            3080     14.8114E-03     14.6049E-03
            2648            3080     14.8114E-03     14.6049E-03
            2647            3080     14.8114E-03     14.6049E-03
            2629            3080     14.8114E-03     14.6049E-03
            2631            3081     14.0161E-03     13.8749E-03
            2630            3081     14.0161E-03     13.8749E-03
            2649            3081     14.0161E-03     13.8749E-03
            2648            3081     14.0161E-03     13.8749E-03
            2650            3082     13.2617E-03     13.2110E-03
            2649            3082     13.2617E-03     13.2110E-03
            2632            3082     13.2617E-03     13.2110E-03
            2631            3082     13.2617E-03     13.2110E-03
            2651            3083     12.5511E-03     12.6225E-03
            2650            3083     12.5511E-03     12.6225E-03
            2633            3083     12.5511E-03     12.6225E-03
            2632            3083     12.5511E-03     12.6225E-03
            2651            3084     11.8135E-03     12.0825E-03
            2652            3084     11.8135E-03     12.0825E-03
            2633            3084     11.8135E-03     12.0825E-03
            2634            3084     11.8135E-03     12.0825E-03
            2634            3085     10.9487E-03     11.6451E-03
            2653            3085     10.9487E-03     11.6451E-03
            2635            3085     10.9487E-03     11.6451E-03
            2652            3085     10.9487E-03     11.6451E-03
            2636            3086     9.75562E-03     10.8371E-03
            2635            3086     9.75562E-03     10.8371E-03
            2653            3086     9.75562E-03     10.8371E-03
            2654            3086     9.75562E-03     10.8371E-03
            2638            3087     18.7952E-03     18.9309E-03
            2656            3087     18.7952E-03     18.9309E-03
            2655            3087     18.7952E-03     18.9309E-03
            2637            3087     18.7952E-03     18.9309E-03
            2638            3088     20.1557E-03     20.1577E-03
            2656            3088     20.1557E-03     20.1577E-03
            2639            3088     20.1557E-03     20.1577E-03
            2657            3088     20.1557E-03     20.1577E-03
            2640            3089     20.9871E-03     20.7752E-03
            2658            3089     20.9871E-03     20.7752E-03
            2657            3089     20.9871E-03     20.7752E-03
            2639            3089     20.9871E-03     20.7752E-03
            2659            3090     20.9286E-03     20.6182E-03
            2640            3090     20.9286E-03     20.6182E-03
            2641            3090     20.9286E-03     20.6182E-03
            2658            3090     20.9286E-03     20.6182E-03
            2642            3091     20.3732E-03     20.0417E-03
            2641            3091     20.3732E-03     20.0417E-03
            2659            3091     20.3732E-03     20.0417E-03
            2660            3091     20.3732E-03     20.0417E-03
            2642            3092     19.5186E-03     19.1970E-03
            2661            3092     19.5186E-03     19.1970E-03
            2660            3092     19.5186E-03     19.1970E-03
            2643            3092     19.5186E-03     19.1970E-03
            2644            3093     18.5010E-03     18.2032E-03
            2662            3093     18.5010E-03     18.2032E-03
            2661            3093     18.5010E-03     18.2032E-03
            2643            3093     18.5010E-03     18.2032E-03
            2662            3094     17.4077E-03     17.1457E-03
            2663            3094     17.4077E-03     17.1457E-03
            2644            3094     17.4077E-03     17.1457E-03
            2645            3094     17.4077E-03     17.1457E-03
            2663            3095     16.3121E-03     16.0861E-03
            2664            3095     16.3121E-03     16.0861E-03
            2646            3095     16.3121E-03     16.0861E-03
            2645            3095     16.3121E-03     16.0861E-03
            2665            3096     15.2551E-03     15.0741E-03
            2646            3096     15.2551E-03     15.0741E-03
            2664            3096     15.2551E-03     15.0741E-03
            2647            3096     15.2551E-03     15.0741E-03
            2647            3097     14.2824E-03     14.1530E-03
            2666            3097     14.2824E-03     14.1530E-03
            2665            3097     14.2824E-03     14.1530E-03
            2648            3097     14.2824E-03     14.1530E-03
            2667            3098     13.4077E-03     13.3460E-03
            2666            3098     13.4077E-03     13.3460E-03
            2649            3098     13.4077E-03     13.3460E-03
            2648            3098     13.4077E-03     13.3460E-03
            2668            3099     12.6466E-03     12.6817E-03
            2649            3099     12.6466E-03     12.6817E-03
            2667            3099     12.6466E-03     12.6817E-03
            2650            3099     12.6466E-03     12.6817E-03
            2650            3100     11.9780E-03     12.1376E-03
            2668            3100     11.9780E-03     12.1376E-03
            2669            3100     11.9780E-03     12.1376E-03
            2651            3100     11.9780E-03     12.1376E-03
            2669            3101     11.3367E-03     11.7099E-03
            2670            3101     11.3367E-03     11.7099E-03
            2651            3101     11.3367E-03     11.7099E-03
            2652            3101     11.3367E-03     11.7099E-03
            2652            3102     10.6758E-03     11.1804E-03
            2670            3102     10.6758E-03     11.1804E-03
            2653            3102     10.6758E-03     11.1804E-03
            2671            3102     10.6758E-03     11.1804E-03
            2653            3103     9.79210E-03     9.91819E-03
            2654            3103     9.79210E-03     9.91819E-03
            2671            3103     9.79210E-03     9.91819E-03
            2672            3103     9.79210E-03     9.91819E-03
            2674            3104     21.7021E-03     21.9273E-03
            2655            3104     21.7021E-03     21.9273E-03
            2656            3104     21.7021E-03     21.9273E-03
            2673            3104     21.7021E-03     21.9273E-03
            2675            3105     21.9362E-03     22.2998E-03
            2657            3105     21.9362E-03     22.2998E-03
            2656            3105     21.9362E-03     22.2998E-03
            2674            3105     21.9362E-03     22.2998E-03
            2676            3106     22.2310E-03     22.4562E-03
            2657            3106     22.2310E-03     22.4562E-03
            2658            3106     22.2310E-03     22.4562E-03
            2675            3106     22.2310E-03     22.4562E-03
            2659            3107     21.9513E-03     22.0264E-03
            2677            3107     21.9513E-03     22.0264E-03
            2676            3107     21.9513E-03     22.0264E-03
            2658            3107     21.9513E-03     22.0264E-03
            2659            3108     21.1633E-03     21.1431E-03
            2678            3108     21.1633E-03     21.1431E-03
            2677            3108     21.1633E-03     21.1431E-03
            2660            3108     21.1633E-03     21.1431E-03
            2678            3109     20.0744E-03     20.0000E-03
            2679            3109     20.0744E-03     20.0000E-03
            2660            3109     20.0744E-03     20.0000E-03
            2661            3109     20.0744E-03     20.0000E-03
            2680            3110     18.8166E-03     18.7239E-03
            2662            3110     18.8166E-03     18.7239E-03
            2679            3110     18.8166E-03     18.7239E-03
            2661            3110     18.8166E-03     18.7239E-03
            2663            3111     17.5092E-03     17.4101E-03
            2662            3111     17.5092E-03     17.4101E-03
            2680            3111     17.5092E-03     17.4101E-03
            2681            3111     17.5092E-03     17.4101E-03
            2663            3112     16.2171E-03     16.1289E-03
            2664            3112     16.2171E-03     16.1289E-03
            2681            3112     16.2171E-03     16.1289E-03
            2682            3112     16.2171E-03     16.1289E-03
            2664            3113     15.0080E-03     14.9393E-03
            2665            3113     15.0080E-03     14.9393E-03
            2683            3113     15.0080E-03     14.9393E-03
            2682            3113     15.0080E-03     14.9393E-03
            2684            3114     13.9160E-03     13.8787E-03
            2683            3114     13.9160E-03     13.8787E-03
            2666            3114     13.9160E-03     13.8787E-03
            2665            3114     13.9160E-03     13.8787E-03
            2684            3115     12.9764E-03     12.9876E-03
            2667            3115     12.9764E-03     12.9876E-03
            2666            3115     12.9764E-03     12.9876E-03
            2685            3115     12.9764E-03     12.9876E-03
            2685            3116     12.1920E-03     12.2613E-03
            2667            3116     12.1920E-03     12.2613E-03
            2686            3116     12.1920E-03     12.2613E-03
            2668            3116     12.1920E-03     12.2613E-03
            2668            3117     11.5401E-03     11.6859E-03
            2669            3117     11.5401E-03     11.6859E-03
            2686            3117     11.5401E-03     11.6859E-03
            2687            3117     11.5401E-03     11.6859E-03
            2669            3118     10.9783E-03     11.1473E-03
            2670            3118     10.9783E-03     11.1473E-03
            2688            3118     10.9783E-03     11.1473E-03
            2687            3118     10.9783E-03     11.1473E-03
            2688            3119     10.3866E-03     10.3251E-03
            2670            3119     10.3866E-03     10.3251E-03
            2689            3119     10.3866E-03     10.3251E-03
            2671            3119     10.3866E-03     10.3251E-03
            2690            3120     9.45779E-03     9.09679E-03
            2672            3120     9.45779E-03     9.09679E-03
            2671            3120     9.45779E-03     9.09679E-03
            2689            3120     9.45779E-03     9.09679E-03
            2691            3121     24.3646E-03     24.6406E-03
            2674            3121     24.3646E-03     24.6406E-03
            2673            3121     24.3646E-03     24.6406E-03
            2692            3121     24.3646E-03     24.6406E-03
            2693            3122     23.8871E-03     24.2995E-03
            2674            3122     23.8871E-03     24.2995E-03
            2675            3122     23.8871E-03     24.2995E-03
            2692            3122     23.8871E-03     24.2995E-03
            2694            3123     23.4740E-03     23.9171E-03
            2676            3123     23.4740E-03     23.9171E-03
            2693            3123     23.4740E-03     23.9171E-03
            2675            3123     23.4740E-03     23.9171E-03
            2695            3124     22.8245E-03     23.1630E-03
            2694            3124     22.8245E-03     23.1630E-03
            2676            3124     22.8245E-03     23.1630E-03
            2677            3124     22.8245E-03     23.1630E-03
            2696            3125     21.7909E-03     22.0245E-03
            2678            3125     21.7909E-03     22.0245E-03
            2695            3125     21.7909E-03     22.0245E-03
            2677            3125     21.7909E-03     22.0245E-03
            2678            3126     20.4820E-03     20.6443E-03
            2697            3126     20.4820E-03     20.6443E-03
            2696            3126     20.4820E-03     20.6443E-03
            2679            3126     20.4820E-03     20.6443E-03
            2680            3127     19.0434E-03     19.1502E-03
            2698            3127     19.0434E-03     19.1502E-03
            2697            3127     19.0434E-03     19.1502E-03
            2679            3127     19.0434E-03     19.1502E-03
            2680            3128     17.5615E-03     17.6399E-03
            2699            3128     17.5615E-03     17.6399E-03
            2681            3128     17.5615E-03     17.6399E-03
            2698            3128     17.5615E-03     17.6399E-03
            2700            3129     16.1296E-03     16.1903E-03
            2681            3129     16.1296E-03     16.1903E-03
            2682            3129     16.1296E-03     16.1903E-03
            2699            3129     16.1296E-03     16.1903E-03
            2701            3130     14.7983E-03     14.8520E-03
            2683            3130     14.7983E-03     14.8520E-03
            2700            3130     14.7983E-03     14.8520E-03
            2682            3130     14.7983E-03     14.8520E-03
            2701            3131     13.6180E-03     13.6754E-03
            2702            3131     13.6180E-03     13.6754E-03
            2683            3131     13.6180E-03     13.6754E-03
            2684            3131     13.6180E-03     13.6754E-03
            2702            3132     12.6149E-03     12.6779E-03
            2685            3132     12.6149E-03     12.6779E-03
            2703            3132     12.6149E-03     12.6779E-03
            2684            3132     12.6149E-03     12.6779E-03
            2704            3133     11.8012E-03     11.8687E-03
            2703            3133     11.8012E-03     11.8687E-03
            2686            3133     11.8012E-03     11.8687E-03
            2685            3133     11.8012E-03     11.8687E-03
            2705            3134     11.1461E-03     11.1865E-03
            2687            3134     11.1461E-03     11.1865E-03
            2704            3134     11.1461E-03     11.1865E-03
            2686            3134     11.1461E-03     11.1865E-03
            2706            3135     10.5877E-03     10.4856E-03
            2688            3135     10.5877E-03     10.4856E-03
            2705            3135     10.5877E-03     10.4856E-03
            2687            3135     10.5877E-03     10.4856E-03
            2688            3136     9.96535E-03     9.66390E-03
            2707            3136     9.96535E-03     9.66390E-03
            2689            3136     9.96535E-03     9.66390E-03
            2706            3136     9.96535E-03     9.66390E-03
            2707            3137     9.26124E-03     8.76157E-03
            2689            3137     9.26124E-03     8.76157E-03
            2708            3137     9.26124E-03     8.76157E-03
            2690            3137     9.26124E-03     8.76157E-03
            2709            3138     26.8953E-03     27.1792E-03
            2691            3138     26.8953E-03     27.1792E-03
            2692            3138     26.8953E-03     27.1792E-03
            2710            3138     26.8953E-03     27.1792E-03
            2692            3139     25.7439E-03     26.2167E-03
            2711            3139     25.7439E-03     26.2167E-03
            2693            3139     25.7439E-03     26.2167E-03
            2710            3139     25.7439E-03     26.2167E-03
            2711            3140     24.7558E-03     25.2640E-03
            2694            3140     24.7558E-03     25.2640E-03
            2693            3140     24.7558E-03     25.2640E-03
            2712            3140     24.7558E-03     25.2640E-03
            2695            3141     23.6026E-03     24.0931E-03
            2712            3141     23.6026E-03     24.0931E-03
            2694            3141     23.6026E-03     24.0931E-03
            2713            3141     23.6026E-03     24.0931E-03
            2714            3142     22.2432E-03     22.6716E-03
            2695            3142     22.2432E-03     22.6716E-03
            2696            3142     22.2432E-03     22.6716E-03
            2713            3142     22.2432E-03     22.6716E-03
            2715            3143     20.7182E-03     21.0663E-03
            2697            3143     20.7182E-03     21.0663E-03
            2696            3143     20.7182E-03     21.0663E-03
            2714            3143     20.7182E-03     21.0663E-03
            2698            3144     19.0983E-03     19.3936E-03
            2716            3144     19.0983E-03     19.3936E-03
            2715            3144     19.0983E-03     19.3936E-03
            2697            3144     19.0983E-03     19.3936E-03
            2698            3145     17.4938E-03     17.7409E-03
            2717            3145     17.4938E-03     17.7409E-03
            2716            3145     17.4938E-03     17.7409E-03
            2699            3145     17.4938E-03     17.7409E-03
            2700            3146     15.9550E-03     16.1641E-03
            2699            3146     15.9550E-03     16.1641E-03
            2718            3146     15.9550E-03     16.1641E-03
            2717            3146     15.9550E-03     16.1641E-03
            2700            3147     14.5405E-03     14.7187E-03
            2718            3147     14.5405E-03     14.7187E-03
            2701            3147     14.5405E-03     14.7187E-03
            2719            3147     14.5405E-03     14.7187E-03
            2719            3148     13.2948E-03     13.4396E-03
            2701            3148     13.2948E-03     13.4396E-03
            2702            3148     13.2948E-03     13.4396E-03
            2720            3148     13.2948E-03     13.4396E-03
            2702            3149     12.2486E-03     12.3548E-03
            2703            3149     12.2486E-03     12.3548E-03
            2721            3149     12.2486E-03     12.3548E-03
            2720            3149     12.2486E-03     12.3548E-03
            2704            3150     11.4029E-03     11.4473E-03
            2721            3150     11.4029E-03     11.4473E-03
            2722            3150     11.4029E-03     11.4473E-03
            2703            3150     11.4029E-03     11.4473E-03
            2705            3151     10.7481E-03     10.6712E-03
            2722            3151     10.7481E-03     10.6712E-03
            2704            3151     10.7481E-03     10.6712E-03
            2723            3151     10.7481E-03     10.6712E-03
            2706            3152     10.1842E-03     9.94131E-03
            2705            3152     10.1842E-03     9.94131E-03
            2724            3152     10.1842E-03     9.94131E-03
            2723            3152     10.1842E-03     9.94131E-03
            2724            3153     9.67604E-03     9.22725E-03
            2706            3153     9.67604E-03     9.22725E-03
            2707            3153     9.67604E-03     9.22725E-03
            2725            3153     9.67604E-03     9.22725E-03
            2708            3154     9.26100E-03     8.61076E-03
            2707            3154     9.26100E-03     8.61076E-03
            2726            3154     9.26100E-03     8.61076E-03
            2725            3154     9.26100E-03     8.61076E-03
            2710            3155     29.2844E-03     29.6651E-03
            2727            3155     29.2844E-03     29.6651E-03
            2728            3155     29.2844E-03     29.6651E-03
            2709            3155     29.2844E-03     29.6651E-03
            2729            3156     27.5921E-03     28.0405E-03
            2711            3156     27.5921E-03     28.0405E-03
            2710            3156     27.5921E-03     28.0405E-03
            2728            3156     27.5921E-03     28.0405E-03
            2712            3157     25.9371E-03     26.5038E-03
            2730            3157     25.9371E-03     26.5038E-03
            2711            3157     25.9371E-03     26.5038E-03
            2729            3157     25.9371E-03     26.5038E-03
            2731            3158     24.2639E-03     24.8491E-03
            2713            3158     24.2639E-03     24.8491E-03
            2712            3158     24.2639E-03     24.8491E-03
            2730            3158     24.2639E-03     24.8491E-03
            2731            3159     22.5212E-03     23.0653E-03
            2732            3159     22.5212E-03     23.0653E-03
            2713            3159     22.5212E-03     23.0653E-03
            2714            3159     22.5212E-03     23.0653E-03
            2732            3160     20.7213E-03     21.2307E-03
            2733            3160     20.7213E-03     21.2307E-03
            2714            3160     20.7213E-03     21.2307E-03
            2715            3160     20.7213E-03     21.2307E-03
            2715            3161     18.9579E-03     19.4138E-03
            2734            3161     18.9579E-03     19.4138E-03
            2716            3161     18.9579E-03     19.4138E-03
            2733            3161     18.9579E-03     19.4138E-03
            2716            3162     17.2466E-03     17.6493E-03
            2735            3162     17.2466E-03     17.6493E-03
            2734            3162     17.2466E-03     17.6493E-03
            2717            3162     17.2466E-03     17.6493E-03
            2717            3163     15.6356E-03     15.9891E-03
            2718            3163     15.6356E-03     15.9891E-03
            2735            3163     15.6356E-03     15.9891E-03
            2736            3163     15.6356E-03     15.9891E-03
            2737            3164     14.1692E-03     14.4655E-03
            2736            3164     14.1692E-03     14.4655E-03
            2718            3164     14.1692E-03     14.4655E-03
            2719            3164     14.1692E-03     14.4655E-03
            2738            3165     12.8787E-03     13.1125E-03
            2737            3165     12.8787E-03     13.1125E-03
            2719            3165     12.8787E-03     13.1125E-03
            2720            3165     12.8787E-03     13.1125E-03
            2720            3166     11.8079E-03     11.9554E-03
            2721            3166     11.8079E-03     11.9554E-03
            2739            3166     11.8079E-03     11.9554E-03
            2738            3166     11.8079E-03     11.9554E-03
            2721            3167     10.9727E-03     10.9977E-03
            2740            3167     10.9727E-03     10.9977E-03
            2722            3167     10.9727E-03     10.9977E-03
            2739            3167     10.9727E-03     10.9977E-03
            2740            3168     10.3281E-03     10.1893E-03
            2723            3168     10.3281E-03     10.1893E-03
            2722            3168     10.3281E-03     10.1893E-03
            2741            3168     10.3281E-03     10.1893E-03
            2723            3169     9.87316E-03     9.52750E-03
            2741            3169     9.87316E-03     9.52750E-03
            2742            3169     9.87316E-03     9.52750E-03
            2724            3169     9.87316E-03     9.52750E-03
            2724            3170     9.55872E-03     9.00408E-03
            2742            3170     9.55872E-03     9.00408E-03
            2743            3170     9.55872E-03     9.00408E-03
            2725            3170     9.55872E-03     9.00408E-03
            2744            3171     9.43728E-03     8.73982E-03
            2726            3171     9.43728E-03     8.73982E-03
            2725            3171     9.43728E-03     8.73982E-03
            2743            3171     9.43728E-03     8.73982E-03
            2728            3172     31.7440E-03     32.0534E-03
            2745            3172     31.7440E-03     32.0534E-03
            2746            3172     31.7440E-03     32.0534E-03
            2727            3172     31.7440E-03     32.0534E-03
            2746            3173     29.3027E-03     29.8420E-03
            2747            3173     29.3027E-03     29.8420E-03
            2728            3173     29.3027E-03     29.8420E-03
            2729            3173     29.3027E-03     29.8420E-03
            2748            3174     26.9939E-03     27.5847E-03
            2747            3174     26.9939E-03     27.5847E-03
            2730            3174     26.9939E-03     27.5847E-03
            2729            3174     26.9939E-03     27.5847E-03
            2730            3175     24.7117E-03     25.3275E-03
            2748            3175     24.7117E-03     25.3275E-03
            2749            3175     24.7117E-03     25.3275E-03
            2731            3175     24.7117E-03     25.3275E-03
            2731            3176     22.5033E-03     23.1617E-03
            2750            3176     22.5033E-03     23.1617E-03
            2749            3176     22.5033E-03     23.1617E-03
            2732            3176     22.5033E-03     23.1617E-03
            2751            3177     20.4883E-03     21.1273E-03
            2750            3177     20.4883E-03     21.1273E-03
            2732            3177     20.4883E-03     21.1273E-03
            2733            3177     20.4883E-03     21.1273E-03
            2751            3178     18.5848E-03     19.1810E-03
            2733            3178     18.5848E-03     19.1810E-03
            2752            3178     18.5848E-03     19.1810E-03
            2734            3178     18.5848E-03     19.1810E-03
            2752            3179     16.7968E-03     17.3469E-03
            2753            3179     16.7968E-03     17.3469E-03
            2735            3179     16.7968E-03     17.3469E-03
            2734            3179     16.7968E-03     17.3469E-03
            2753            3180     15.1425E-03     15.6297E-03
            2754            3180     15.1425E-03     15.6297E-03
            2736            3180     15.1425E-03     15.6297E-03
            2735            3180     15.1425E-03     15.6297E-03
            2754            3181     13.6347E-03     14.0532E-03
            2736            3181     13.6347E-03     14.0532E-03
            2755            3181     13.6347E-03     14.0532E-03
            2737            3181     13.6347E-03     14.0532E-03
            2755            3182     12.3266E-03     12.6514E-03
            2738            3182     12.3266E-03     12.6514E-03
            2737            3182     12.3266E-03     12.6514E-03
            2756            3182     12.3266E-03     12.6514E-03
            2756            3183     11.2434E-03     11.4455E-03
            2757            3183     11.2434E-03     11.4455E-03
            2739            3183     11.2434E-03     11.4455E-03
            2738            3183     11.2434E-03     11.4455E-03
            2739            3184     10.4396E-03     10.4739E-03
            2758            3184     10.4396E-03     10.4739E-03
            2757            3184     10.4396E-03     10.4739E-03
            2740            3184     10.4396E-03     10.4739E-03
            2741            3185     9.93857E-03     9.76190E-03
            2758            3185     9.93857E-03     9.76190E-03
            2740            3185     9.93857E-03     9.76190E-03
            2759            3185     9.93857E-03     9.76190E-03
            2742            3186     9.65116E-03     9.24622E-03
            2759            3186     9.65116E-03     9.24622E-03
            2760            3186     9.65116E-03     9.24622E-03
            2741            3186     9.65116E-03     9.24622E-03
            2742            3187     9.62213E-03     9.01088E-03
            2760            3187     9.62213E-03     9.01088E-03
            2743            3187     9.62213E-03     9.01088E-03
            2761            3187     9.62213E-03     9.01088E-03
            2761            3188     9.88085E-03     9.13582E-03
            2744            3188     9.88085E-03     9.13582E-03
            2762            3188     9.88085E-03     9.13582E-03
            2743            3188     9.88085E-03     9.13582E-03
            2746            3189     34.0871E-03     34.6611E-03
            2745            3189     34.0871E-03     34.6611E-03
            2764            3189     34.0871E-03     34.6611E-03
            2763            3189     34.0871E-03     34.6611E-03
            2764            3190     30.9854E-03     31.4430E-03
            2747            3190     30.9854E-03     31.4430E-03
            2746            3190     30.9854E-03     31.4430E-03
            2765            3190     30.9854E-03     31.4430E-03
            2748            3191     27.7027E-03     28.2583E-03
            2747            3191     27.7027E-03     28.2583E-03
            2765            3191     27.7027E-03     28.2583E-03
            2766            3191     27.7027E-03     28.2583E-03
            2749            3192     24.6653E-03     25.3832E-03
            2748            3192     24.6653E-03     25.3832E-03
            2766            3192     24.6653E-03     25.3832E-03
            2767            3192     24.6653E-03     25.3832E-03
            2750            3193     22.1798E-03     22.9454E-03
            2767            3193     22.1798E-03     22.9454E-03
            2749            3193     22.1798E-03     22.9454E-03
            2768            3193     22.1798E-03     22.9454E-03
            2751            3194     19.9833E-03     20.7356E-03
            2750            3194     19.9833E-03     20.7356E-03
            2768            3194     19.9833E-03     20.7356E-03
            2769            3194     19.9833E-03     20.7356E-03
            2769            3195     17.9838E-03     18.7170E-03
            2770            3195     17.9838E-03     18.7170E-03
            2751            3195     17.9838E-03     18.7170E-03
            2752            3195     17.9838E-03     18.7170E-03
            2770            3196     16.1543E-03     16.8366E-03
            2753            3196     16.1543E-03     16.8366E-03
            2771            3196     16.1543E-03     16.8366E-03
            2752            3196     16.1543E-03     16.8366E-03
            2754            3197     14.4602E-03     15.0858E-03
            2771            3197     14.4602E-03     15.0858E-03
            2772            3197     14.4602E-03     15.0858E-03
            2753            3197     14.4602E-03     15.0858E-03
            2772            3198     12.9354E-03     13.4778E-03
            2755            3198     12.9354E-03     13.4778E-03
            2754            3198     12.9354E-03     13.4778E-03
            2773            3198     12.9354E-03     13.4778E-03
            2755            3199     11.5949E-03     12.0279E-03
            2773            3199     11.5949E-03     12.0279E-03
            2756            3199     11.5949E-03     12.0279E-03
            2774            3199     11.5949E-03     12.0279E-03
            2756            3200     10.5202E-03     10.7974E-03
            2774            3200     10.5202E-03     10.7974E-03
            2757            3200     10.5202E-03     10.7974E-03
            2775            3200     10.5202E-03     10.7974E-03
            2775            3201     9.75506E-03     9.82808E-03
            2776            3201     9.75506E-03     9.82808E-03
            2758            3201     9.75506E-03     9.82808E-03
            2757            3201     9.75506E-03     9.82808E-03
            2759            3202     9.41617E-03     9.23490E-03
            2777            3202     9.41617E-03     9.23490E-03
            2776            3202     9.41617E-03     9.23490E-03
            2758            3202     9.41617E-03     9.23490E-03
            2760            3203     9.56292E-03     9.12219E-03
            2777            3203     9.56292E-03     9.12219E-03
            2778            3203     9.56292E-03     9.12219E-03
            2759            3203     9.56292E-03     9.12219E-03
            2779            3204     9.95466E-03     9.31173E-03
            2760            3204     9.95466E-03     9.31173E-03
            2778            3204     9.95466E-03     9.31173E-03
            2761            3204     9.95466E-03     9.31173E-03
            2779            3205     10.5492E-03     9.80675E-03
            2762            3205     10.5492E-03     9.80675E-03
            2761            3205     10.5492E-03     9.80675E-03
            2780            3205     10.5492E-03     9.80675E-03
            2763            3206     36.7702E-03     36.8097E-03
            2764            3206     36.7702E-03     36.8097E-03
            2782            3206     36.7702E-03     36.8097E-03
            2781            3206     36.7702E-03     36.8097E-03
            2765            3207     31.9935E-03     32.4088E-03
            2764            3207     31.9935E-03     32.4088E-03
            2783            3207     31.9935E-03     32.4088E-03
            2782            3207     31.9935E-03     32.4088E-03
            2783            3208     27.4511E-03     28.1942E-03
            2784            3208     27.4511E-03     28.1942E-03
            2765            3208     27.4511E-03     28.1942E-03
            2766            3208     27.4511E-03     28.1942E-03
            2766            3209     24.1687E-03     25.0240E-03
            2785            3209     24.1687E-03     25.0240E-03
            2767            3209     24.1687E-03     25.0240E-03
            2784            3209     24.1687E-03     25.0240E-03
            2786            3210     21.5329E-03     22.3951E-03
            2785            3210     21.5329E-03     22.3951E-03
            2768            3210     21.5329E-03     22.3951E-03
            2767            3210     21.5329E-03     22.3951E-03
            2768            3211     19.2387E-03     20.1148E-03
            2786            3211     19.2387E-03     20.1148E-03
            2769            3211     19.2387E-03     20.1148E-03
            2787            3211     19.2387E-03     20.1148E-03
            2770            3212     17.2115E-03     18.0632E-03
            2769            3212     17.2115E-03     18.0632E-03
            2788            3212     17.2115E-03     18.0632E-03
            2787            3212     17.2115E-03     18.0632E-03
            2771            3213     15.3426E-03     16.1630E-03
            2789            3213     15.3426E-03     16.1630E-03
            2788            3213     15.3426E-03     16.1630E-03
            2770            3213     15.3426E-03     16.1630E-03
            2789            3214     13.6320E-03     14.3969E-03
            2771            3214     13.6320E-03     14.3969E-03
            2790            3214     13.6320E-03     14.3969E-03
            2772            3214     13.6320E-03     14.3969E-03
            2791            3215     12.0674E-03     12.7510E-03
            2773            3215     12.0674E-03     12.7510E-03
            2772            3215     12.0674E-03     12.7510E-03
            2790            3215     12.0674E-03     12.7510E-03
            2774            3216     10.7018E-03     11.2641E-03
            2773            3216     10.7018E-03     11.2641E-03
            2792            3216     10.7018E-03     11.2641E-03
            2791            3216     10.7018E-03     11.2641E-03
            2774            3217     9.58631E-03     9.97232E-03
            2792            3217     9.58631E-03     9.97232E-03
            2775            3217     9.58631E-03     9.97232E-03
            2793            3217     9.58631E-03     9.97232E-03
            2776            3218     8.86995E-03     9.01118E-03
            2793            3218     8.86995E-03     9.01118E-03
            2794            3218     8.86995E-03     9.01118E-03
            2775            3218     8.86995E-03     9.01118E-03
            2776            3219     8.64474E-03     8.49230E-03
            2777            3219     8.64474E-03     8.49230E-03
            2794            3219     8.64474E-03     8.49230E-03
            2795            3219     8.64474E-03     8.49230E-03
            2778            3220     9.16585E-03     8.71411E-03
            2795            3220     9.16585E-03     8.71411E-03
            2777            3220     9.16585E-03     8.71411E-03
            2796            3220     9.16585E-03     8.71411E-03
            2778            3221     10.4976E-03     9.82734E-03
            2796            3221     10.4976E-03     9.82734E-03
            2797            3221     10.4976E-03     9.82734E-03
            2779            3221     10.4976E-03     9.82734E-03
            2798            3222     11.8214E-03     11.0664E-03
            2779            3222     11.8214E-03     11.0664E-03
            2797            3222     11.8214E-03     11.0664E-03
            2780            3222     11.8214E-03     11.0664E-03
            2799            3223     37.9115E-03     38.6828E-03
            2781            3223     37.9115E-03     38.6828E-03
            2782            3223     37.9115E-03     38.6828E-03
            2800            3223     37.9115E-03     38.6828E-03
            2783            3224     31.0923E-03     32.1037E-03
            2782            3224     31.0923E-03     32.1037E-03
            2800            3224     31.0923E-03     32.1037E-03
            2801            3224     31.0923E-03     32.1037E-03
            2784            3225     26.5388E-03     27.5293E-03
            2802            3225     26.5388E-03     27.5293E-03
            2801            3225     26.5388E-03     27.5293E-03
            2783            3225     26.5388E-03     27.5293E-03
            2785            3226     23.3455E-03     24.3026E-03
            2802            3226     23.3455E-03     24.3026E-03
            2803            3226     23.3455E-03     24.3026E-03
            2784            3226     23.3455E-03     24.3026E-03
            2786            3227     20.6608E-03     21.6272E-03
            2804            3227     20.6608E-03     21.6272E-03
            2803            3227     20.6608E-03     21.6272E-03
            2785            3227     20.6608E-03     21.6272E-03
            2787            3228     18.3892E-03     19.3642E-03
            2786            3228     18.3892E-03     19.3642E-03
            2805            3228     18.3892E-03     19.3642E-03
            2804            3228     18.3892E-03     19.3642E-03
            2806            3229     16.3311E-03     17.3047E-03
            2788            3229     16.3311E-03     17.3047E-03
            2787            3229     16.3311E-03     17.3047E-03
            2805            3229     16.3311E-03     17.3047E-03
            2806            3230     14.4498E-03     15.4105E-03
            2788            3230     14.4498E-03     15.4105E-03
            2789            3230     14.4498E-03     15.4105E-03
            2807            3230     14.4498E-03     15.4105E-03
            2789            3231     12.6992E-03     13.6182E-03
            2807            3231     12.6992E-03     13.6182E-03
            2808            3231     12.6992E-03     13.6182E-03
            2790            3231     12.6992E-03     13.6182E-03
            2808            3232     11.0893E-03     11.9383E-03
            2791            3232     11.0893E-03     11.9383E-03
            2790            3232     11.0893E-03     11.9383E-03
            2809            3232     11.0893E-03     11.9383E-03
            2810            3233     9.65226E-03     10.3776E-03
            2792            3233     9.65226E-03     10.3776E-03
            2809            3233     9.65226E-03     10.3776E-03
            2791            3233     9.65226E-03     10.3776E-03
            2811            3234     8.48021E-03     9.01380E-03
            2793            3234     8.48021E-03     9.01380E-03
            2792            3234     8.48021E-03     9.01380E-03
            2810            3234     8.48021E-03     9.01380E-03
            2812            3235     7.70342E-03     7.95316E-03
            2811            3235     7.70342E-03     7.95316E-03
            2793            3235     7.70342E-03     7.95316E-03
            2794            3235     7.70342E-03     7.95316E-03
            2794            3236     7.58708E-03     7.47972E-03
            2812            3236     7.58708E-03     7.47972E-03
            2813            3236     7.58708E-03     7.47972E-03
            2795            3236     7.58708E-03     7.47972E-03
            2814            3237     8.23723E-03     7.78948E-03
            2813            3237     8.23723E-03     7.78948E-03
            2796            3237     8.23723E-03     7.78948E-03
            2795            3237     8.23723E-03     7.78948E-03
            2796            3238     10.1811E-03     9.49274E-03
            2814            3238     10.1811E-03     9.49274E-03
            2797            3238     10.1811E-03     9.49274E-03
            2815            3238     10.1811E-03     9.49274E-03
            2798            3239     13.3068E-03     12.5379E-03
            2797            3239     13.3068E-03     12.5379E-03
            2815            3239     13.3068E-03     12.5379E-03
            2816            3239     13.3068E-03     12.5379E-03
            2817            3240     36.9304E-03     37.7664E-03
            2818            3240     36.9304E-03     37.7664E-03
            2800            3240     36.9304E-03     37.7664E-03
            2799            3240     36.9304E-03     37.7664E-03
            2800            3241     33.1725E-03     33.2618E-03
            2818            3241     33.1725E-03     33.2618E-03
            2801            3241     33.1725E-03     33.2618E-03
            2819            3241     33.1725E-03     33.2618E-03
            2801            3242     30.5497E-03     30.5773E-03
            2820            3242     30.5497E-03     30.5773E-03
            2802            3242     30.5497E-03     30.5773E-03
            2819            3242     30.5497E-03     30.5773E-03
            2803            3243     28.1315E-03     28.2457E-03
            2802            3243     28.1315E-03     28.2457E-03
            2820            3243     28.1315E-03     28.2457E-03
            2821            3243     28.1315E-03     28.2457E-03
            2804            3244     25.9026E-03     26.0934E-03
            2822            3244     25.9026E-03     26.0934E-03
            2821            3244     25.9026E-03     26.0934E-03
            2803            3244     25.9026E-03     26.0934E-03
            2822            3245     23.7402E-03     24.0322E-03
            2804            3245     23.7402E-03     24.0322E-03
            2805            3245     23.7402E-03     24.0322E-03
            2823            3245     23.7402E-03     24.0322E-03
            2824            3246     21.6465E-03     21.9987E-03
            2823            3246     21.6465E-03     21.9987E-03
            2805            3246     21.6465E-03     21.9987E-03
            2806            3246     21.6465E-03     21.9987E-03
            2825            3247     19.6000E-03     20.0057E-03
            2806            3247     19.6000E-03     20.0057E-03
            2807            3247     19.6000E-03     20.0057E-03
            2824            3247     19.6000E-03     20.0057E-03
            2807            3248     17.6260E-03     18.0488E-03
            2826            3248     17.6260E-03     18.0488E-03
            2808            3248     17.6260E-03     18.0488E-03
            2825            3248     17.6260E-03     18.0488E-03
            2826            3249     15.7446E-03     16.1626E-03
            2808            3249     15.7446E-03     16.1626E-03
            2827            3249     15.7446E-03     16.1626E-03
            2809            3249     15.7446E-03     16.1626E-03
            2810            3250     14.0081E-03     14.3828E-03
            2809            3250     14.0081E-03     14.3828E-03
            2828            3250     14.0081E-03     14.3828E-03
            2827            3250     14.0081E-03     14.3828E-03
            2811            3251     12.4952E-03     12.7862E-03
            2828            3251     12.4952E-03     12.7862E-03
            2810            3251     12.4952E-03     12.7862E-03
            2829            3251     12.4952E-03     12.7862E-03
            2812            3252     11.3024E-03     11.4564E-03
            2811            3252     11.3024E-03     11.4564E-03
            2830            3252     11.3024E-03     11.4564E-03
            2829            3252     11.3024E-03     11.4564E-03
            2813            3253     10.5924E-03     10.6069E-03
            2830            3253     10.5924E-03     10.6069E-03
            2831            3253     10.5924E-03     10.6069E-03
            2812            3253     10.5924E-03     10.6069E-03
            2813            3254     10.4524E-03     10.3781E-03
            2814            3254     10.4524E-03     10.3781E-03
            2831            3254     10.4524E-03     10.3781E-03
            2832            3254     10.4524E-03     10.3781E-03
            2815            3255     10.8896E-03     11.0244E-03
            2833            3255     10.8896E-03     11.0244E-03
            2832            3255     10.8896E-03     11.0244E-03
            2814            3255     10.8896E-03     11.0244E-03
            2834            3256     12.2681E-03     13.4844E-03
            2816            3256     12.2681E-03     13.4844E-03
            2833            3256     12.2681E-03     13.4844E-03
            2815            3256     12.2681E-03     13.4844E-03
            2817            3257     38.2399E-03     37.6334E-03
            2818            3257     38.2399E-03     37.6334E-03
            2836            3257     38.2399E-03     37.6334E-03
            2835            3257     38.2399E-03     37.6334E-03
            2837            3258     37.5395E-03     36.9969E-03
            2818            3258     37.5395E-03     36.9969E-03
            2819            3258     37.5395E-03     36.9969E-03
            2836            3258     37.5395E-03     36.9969E-03
            2838            3259     36.1636E-03     35.5821E-03
            2819            3259     36.1636E-03     35.5821E-03
            2820            3259     36.1636E-03     35.5821E-03
            2837            3259     36.1636E-03     35.5821E-03
            2820            3260     34.3511E-03     33.8474E-03
            2838            3260     34.3511E-03     33.8474E-03
            2839            3260     34.3511E-03     33.8474E-03
            2821            3260     34.3511E-03     33.8474E-03
            2839            3261     32.2523E-03     31.8452E-03
            2840            3261     32.2523E-03     31.8452E-03
            2821            3261     32.2523E-03     31.8452E-03
            2822            3261     32.2523E-03     31.8452E-03
            2822            3262     29.9790E-03     29.6672E-03
            2841            3262     29.9790E-03     29.6672E-03
            2823            3262     29.9790E-03     29.6672E-03
            2840            3262     29.9790E-03     29.6672E-03
            2823            3263     27.6009E-03     27.3776E-03
            2842            3263     27.6009E-03     27.3776E-03
            2841            3263     27.6009E-03     27.3776E-03
            2824            3263     27.6009E-03     27.3776E-03
            2843            3264     25.1889E-03     25.0305E-03
            2824            3264     25.1889E-03     25.0305E-03
            2842            3264     25.1889E-03     25.0305E-03
            2825            3264     25.1889E-03     25.0305E-03
            2843            3265     22.7961E-03     22.6968E-03
            2844            3265     22.7961E-03     22.6968E-03
            2826            3265     22.7961E-03     22.6968E-03
            2825            3265     22.7961E-03     22.6968E-03
            2827            3266     20.4946E-03     20.4313E-03
            2844            3266     20.4946E-03     20.4313E-03
            2845            3266     20.4946E-03     20.4313E-03
            2826            3266     20.4946E-03     20.4313E-03
            2827            3267     18.3398E-03     18.3151E-03
            2846            3267     18.3398E-03     18.3151E-03
            2845            3267     18.3398E-03     18.3151E-03
            2828            3267     18.3398E-03     18.3151E-03
            2846            3268     16.4217E-03     16.4269E-03
            2828            3268     16.4217E-03     16.4269E-03
            2847            3268     16.4217E-03     16.4269E-03
            2829            3268     16.4217E-03     16.4269E-03
            2847            3269     14.7993E-03     14.8707E-03
            2829            3269     14.7993E-03     14.8707E-03
            2848            3269     14.7993E-03     14.8707E-03
            2830            3269     14.7993E-03     14.8707E-03
            2849            3270     13.5494E-03     13.7407E-03
            2831            3270     13.5494E-03     13.7407E-03
            2848            3270     13.5494E-03     13.7407E-03
            2830            3270     13.5494E-03     13.7407E-03
            2849            3271     12.6740E-03     13.1187E-03
            2831            3271     12.6740E-03     13.1187E-03
            2832            3271     12.6740E-03     13.1187E-03
            2850            3271     12.6740E-03     13.1187E-03
            2850            3272     12.0455E-03     13.0874E-03
            2832            3272     12.0455E-03     13.0874E-03
            2851            3272     12.0455E-03     13.0874E-03
            2833            3272     12.0455E-03     13.0874E-03
            2852            3273     11.9154E-03     13.4673E-03
            2833            3273     11.9154E-03     13.4673E-03
            2851            3273     11.9154E-03     13.4673E-03
            2834            3273     11.9154E-03     13.4673E-03
            2836            3274     41.3934E-03     41.5750E-03
            2854            3274     41.3934E-03     41.5750E-03
            2835            3274     41.3934E-03     41.5750E-03
            2853            3274     41.3934E-03     41.5750E-03
            2837            3275     40.0995E-03     40.3632E-03
            2855            3275     40.0995E-03     40.3632E-03
            2854            3275     40.0995E-03     40.3632E-03
            2836            3275     40.0995E-03     40.3632E-03
            2856            3276     38.2948E-03     38.4609E-03
            2838            3276     38.2948E-03     38.4609E-03
            2855            3276     38.2948E-03     38.4609E-03
            2837            3276     38.2948E-03     38.4609E-03
            2856            3277     36.0928E-03     36.1352E-03
            2839            3277     36.0928E-03     36.1352E-03
            2857            3277     36.0928E-03     36.1352E-03
            2838            3277     36.0928E-03     36.1352E-03
            2840            3278     33.5677E-03     33.5656E-03
            2839            3278     33.5677E-03     33.5656E-03
            2858            3278     33.5677E-03     33.5656E-03
            2857            3278     33.5677E-03     33.5656E-03
            2859            3279     30.8593E-03     30.8484E-03
            2840            3279     30.8593E-03     30.8484E-03
            2841            3279     30.8593E-03     30.8484E-03
            2858            3279     30.8593E-03     30.8484E-03
            2860            3280     28.0559E-03     28.0496E-03
            2842            3280     28.0559E-03     28.0496E-03
            2841            3280     28.0559E-03     28.0496E-03
            2859            3280     28.0559E-03     28.0496E-03
            2861            3281     25.2301E-03     25.2441E-03
            2843            3281     25.2301E-03     25.2441E-03
            2860            3281     25.2301E-03     25.2441E-03
            2842            3281     25.2301E-03     25.2441E-03
            2861            3282     22.4584E-03     22.4867E-03
            2843            3282     22.4584E-03     22.4867E-03
            2862            3282     22.4584E-03     22.4867E-03
            2844            3282     22.4584E-03     22.4867E-03
            2863            3283     19.8049E-03     19.8548E-03
            2845            3283     19.8049E-03     19.8548E-03
            2862            3283     19.8049E-03     19.8548E-03
            2844            3283     19.8049E-03     19.8548E-03
            2845            3284     17.3623E-03     17.4333E-03
            2864            3284     17.3623E-03     17.4333E-03
            2846            3284     17.3623E-03     17.4333E-03
            2863            3284     17.3623E-03     17.4333E-03
            2847            3285     15.2265E-03     15.3364E-03
            2865            3285     15.2265E-03     15.3364E-03
            2864            3285     15.2265E-03     15.3364E-03
            2846            3285     15.2265E-03     15.3364E-03
            2866            3286     13.5291E-03     13.7107E-03
            2865            3286     13.5291E-03     13.7107E-03
            2847            3286     13.5291E-03     13.7107E-03
            2848            3286     13.5291E-03     13.7107E-03
            2849            3287     12.3996E-03     12.6916E-03
            2848            3287     12.3996E-03     12.6916E-03
            2867            3287     12.3996E-03     12.6916E-03
            2866            3287     12.3996E-03     12.6916E-03
            2850            3288     11.8731E-03     12.3692E-03
            2849            3288     11.8731E-03     12.3692E-03
            2868            3288     11.8731E-03     12.3692E-03
            2867            3288     11.8731E-03     12.3692E-03
            2869            3289     12.1408E-03     12.5954E-03
            2850            3289     12.1408E-03     12.5954E-03
            2851            3289     12.1408E-03     12.5954E-03
            2868            3289     12.1408E-03     12.5954E-03
            2870            3290     12.9978E-03     12.6333E-03
            2852            3290     12.9978E-03     12.6333E-03
            2851            3290     12.9978E-03     12.6333E-03
            2869            3290     12.9978E-03     12.6333E-03
            2871            3291     44.2055E-03     44.7426E-03
            2853            3291     44.2055E-03     44.7426E-03
            2854            3291     44.2055E-03     44.7426E-03
            2872            3291     44.2055E-03     44.7426E-03
            2873            3292     42.3379E-03     42.9826E-03
            2854            3292     42.3379E-03     42.9826E-03
            2872            3292     42.3379E-03     42.9826E-03
            2855            3292     42.3379E-03     42.9826E-03
            2873            3293     40.1882E-03     40.7630E-03
            2856            3293     40.1882E-03     40.7630E-03
            2855            3293     40.1882E-03     40.7630E-03
            2874            3293     40.1882E-03     40.7630E-03
            2856            3294     37.5977E-03     38.0791E-03
            2857            3294     37.5977E-03     38.0791E-03
            2874            3294     37.5977E-03     38.0791E-03
            2875            3294     37.5977E-03     38.0791E-03
            2875            3295     34.7400E-03     35.1042E-03
            2876            3295     34.7400E-03     35.1042E-03
            2858            3295     34.7400E-03     35.1042E-03
            2857            3295     34.7400E-03     35.1042E-03
            2859            3296     31.6782E-03     31.9696E-03
            2876            3296     31.6782E-03     31.9696E-03
            2858            3296     31.6782E-03     31.9696E-03
            2877            3296     31.6782E-03     31.9696E-03
            2878            3297     28.5297E-03     28.7776E-03
            2860            3297     28.5297E-03     28.7776E-03
            2859            3297     28.5297E-03     28.7776E-03
            2877            3297     28.5297E-03     28.7776E-03
            2861            3298     25.3773E-03     25.5932E-03
            2860            3298     25.3773E-03     25.5932E-03
            2879            3298     25.3773E-03     25.5932E-03
            2878            3298     25.3773E-03     25.5932E-03
            2879            3299     22.2901E-03     22.4928E-03
            2862            3299     22.2901E-03     22.4928E-03
            2880            3299     22.2901E-03     22.4928E-03
            2861            3299     22.2901E-03     22.4928E-03
            2880            3300     19.3526E-03     19.5474E-03
            2862            3300     19.3526E-03     19.5474E-03
            2881            3300     19.3526E-03     19.5474E-03
            2863            3300     19.3526E-03     19.5474E-03
            2863            3301     16.6582E-03     16.8560E-03
            2864            3301     16.6582E-03     16.8560E-03
            2881            3301     16.6582E-03     16.8560E-03
            2882            3301     16.6582E-03     16.8560E-03
            2882            3302     14.3461E-03     14.5591E-03
            2865            3302     14.3461E-03     14.5591E-03
            2864            3302     14.3461E-03     14.5591E-03
            2883            3302     14.3461E-03     14.5591E-03
            2883            3303     12.5912E-03     12.8232E-03
            2865            3303     12.5912E-03     12.8232E-03
            2866            3303     12.5912E-03     12.8232E-03
            2884            3303     12.5912E-03     12.8232E-03
            2866            3304     11.5736E-03     11.8221E-03
            2884            3304     11.5736E-03     11.8221E-03
            2867            3304     11.5736E-03     11.8221E-03
            2885            3304     11.5736E-03     11.8221E-03
            2867            3305     11.4429E-03     11.5667E-03
            2885            3305     11.4429E-03     11.5667E-03
            2868            3305     11.4429E-03     11.5667E-03
            2886            3305     11.4429E-03     11.5667E-03
            2886            3306     12.0780E-03     11.7275E-03
            2887            3306     12.0780E-03     11.7275E-03
            2869            3306     12.0780E-03     11.7275E-03
            2868            3306     12.0780E-03     11.7275E-03
            2870            3307     12.7853E-03     12.0325E-03
            2887            3307     12.7853E-03     12.0325E-03
            2888            3307     12.7853E-03     12.0325E-03
            2869            3307     12.7853E-03     12.0325E-03
            2872            3308     46.7338E-03     47.2270E-03
            2889            3308     46.7338E-03     47.2270E-03
            2890            3308     46.7338E-03     47.2270E-03
            2871            3308     46.7338E-03     47.2270E-03
            2890            3309     44.3529E-03     45.0988E-03
            2873            3309     44.3529E-03     45.0988E-03
            2872            3309     44.3529E-03     45.0988E-03
            2891            3309     44.3529E-03     45.0988E-03
            2892            3310     41.7427E-03     42.5507E-03
            2891            3310     41.7427E-03     42.5507E-03
            2874            3310     41.7427E-03     42.5507E-03
            2873            3310     41.7427E-03     42.5507E-03
            2875            3311     38.8427E-03     39.5736E-03
            2874            3311     38.8427E-03     39.5736E-03
            2893            3311     38.8427E-03     39.5736E-03
            2892            3311     38.8427E-03     39.5736E-03
            2876            3312     35.6463E-03     36.2928E-03
            2894            3312     35.6463E-03     36.2928E-03
            2893            3312     35.6463E-03     36.2928E-03
            2875            3312     35.6463E-03     36.2928E-03
            2877            3313     32.2975E-03     32.8533E-03
            2876            3313     32.2975E-03     32.8533E-03
            2895            3313     32.2975E-03     32.8533E-03
            2894            3313     32.2975E-03     32.8533E-03
            2878            3314     28.8795E-03     29.3594E-03
            2896            3314     28.8795E-03     29.3594E-03
            2877            3314     28.8795E-03     29.3594E-03
            2895            3314     28.8795E-03     29.3594E-03
            2879            3315     25.4718E-03     25.8991E-03
            2897            3315     25.4718E-03     25.8991E-03
            2878            3315     25.4718E-03     25.8991E-03
            2896            3315     25.4718E-03     25.8991E-03
            2879            3316     22.1524E-03     22.5373E-03
            2897            3316     22.1524E-03     22.5373E-03
            2898            3316     22.1524E-03     22.5373E-03
            2880            3316     22.1524E-03     22.5373E-03
            2898            3317     18.9951E-03     19.3489E-03
            2881            3317     18.9951E-03     19.3489E-03
            2880            3317     18.9951E-03     19.3489E-03
            2899            3317     18.9951E-03     19.3489E-03
            2900            3318     16.1059E-03     16.4352E-03
            2881            3318     16.1059E-03     16.4352E-03
            2899            3318     16.1059E-03     16.4352E-03
            2882            3318     16.1059E-03     16.4352E-03
            2901            3319     13.6414E-03     13.9383E-03
            2882            3319     13.6414E-03     13.9383E-03
            2883            3319     13.6414E-03     13.9383E-03
            2900            3319     13.6414E-03     13.9383E-03
            2883            3320     11.8320E-03     12.0647E-03
            2901            3320     11.8320E-03     12.0647E-03
            2902            3320     11.8320E-03     12.0647E-03
            2884            3320     11.8320E-03     12.0647E-03
            2884            3321     10.9035E-03     10.9802E-03
            2885            3321     10.9035E-03     10.9802E-03
            2902            3321     10.9035E-03     10.9802E-03
            2903            3321     10.9035E-03     10.9802E-03
            2903            3322     10.9508E-03     10.6904E-03
            2886            3322     10.9508E-03     10.6904E-03
            2885            3322     10.9508E-03     10.6904E-03
            2904            3322     10.9508E-03     10.6904E-03
            2905            3323     11.6484E-03     11.0190E-03
            2887            3323     11.6484E-03     11.0190E-03
            2886            3323     11.6484E-03     11.0190E-03
            2904            3323     11.6484E-03     11.0190E-03
            2887            3324     12.7384E-03     11.7859E-03
            2888            3324     12.7384E-03     11.7859E-03
            2906            3324     12.7384E-03     11.7859E-03
            2905            3324     12.7384E-03     11.7859E-03
            2908            3325     49.0069E-03     49.5403E-03
            2889            3325     49.0069E-03     49.5403E-03
            2907            3325     49.0069E-03     49.5403E-03
            2890            3325     49.0069E-03     49.5403E-03
            2909            3326     46.1310E-03     46.9072E-03
            2908            3326     46.1310E-03     46.9072E-03
            2891            3326     46.1310E-03     46.9072E-03
            2890            3326     46.1310E-03     46.9072E-03
            2910            3327     43.0879E-03     43.9613E-03
            2891            3327     43.0879E-03     43.9613E-03
            2892            3327     43.0879E-03     43.9613E-03
            2909            3327     43.0879E-03     43.9613E-03
            2910            3328     39.7676E-03     40.6558E-03
            2892            3328     39.7676E-03     40.6558E-03
            2911            3328     39.7676E-03     40.6558E-03
            2893            3328     39.7676E-03     40.6558E-03
            2894            3329     36.2582E-03     37.0926E-03
            2912            3329     36.2582E-03     37.0926E-03
            2911            3329     36.2582E-03     37.0926E-03
            2893            3329     36.2582E-03     37.0926E-03
            2913            3330     32.6448E-03     33.3977E-03
            2895            3330     32.6448E-03     33.3977E-03
            2912            3330     32.6448E-03     33.3977E-03
            2894            3330     32.6448E-03     33.3977E-03
            2913            3331     29.0047E-03     29.6880E-03
            2896            3331     29.0047E-03     29.6880E-03
            2895            3331     29.0047E-03     29.6880E-03
            2914            3331     29.0047E-03     29.6880E-03
            2896            3332     25.4199E-03     26.0360E-03
            2914            3332     25.4199E-03     26.0360E-03
            2897            3332     25.4199E-03     26.0360E-03
            2915            3332     25.4199E-03     26.0360E-03
            2916            3333     21.9365E-03     22.4954E-03
            2898            3333     21.9365E-03     22.4954E-03
            2915            3333     21.9365E-03     22.4954E-03
            2897            3333     21.9365E-03     22.4954E-03
            2917            3334     18.6237E-03     19.1329E-03
            2898            3334     18.6237E-03     19.1329E-03
            2899            3334     18.6237E-03     19.1329E-03
            2916            3334     18.6237E-03     19.1329E-03
            2918            3335     15.5912E-03     16.0414E-03
            2899            3335     15.5912E-03     16.0414E-03
            2900            3335     15.5912E-03     16.0414E-03
            2917            3335     15.5912E-03     16.0414E-03
            2901            3336     13.0072E-03     13.3708E-03
            2900            3336     13.0072E-03     13.3708E-03
            2919            3336     13.0072E-03     13.3708E-03
            2918            3336     13.0072E-03     13.3708E-03
            2902            3337     11.1238E-03     11.3259E-03
            2920            3337     11.1238E-03     11.3259E-03
            2919            3337     11.1238E-03     11.3259E-03
            2901            3337     11.1238E-03     11.3259E-03
            2921            3338     10.2540E-03     10.1521E-03
            2903            3338     10.2540E-03     10.1521E-03
            2902            3338     10.2540E-03     10.1521E-03
            2920            3338     10.2540E-03     10.1521E-03
            2921            3339     10.4026E-03     9.92163E-03
            2904            3339     10.4026E-03     9.92163E-03
            2903            3339     10.4026E-03     9.92163E-03
            2922            3339     10.4026E-03     9.92163E-03
            2922            3340     11.3692E-03     10.5271E-03
            2904            3340     11.3692E-03     10.5271E-03
            2923            3340     11.3692E-03     10.5271E-03
            2905            3340     11.3692E-03     10.5271E-03
            2905            3341     12.8711E-03     11.7784E-03
            2924            3341     12.8711E-03     11.7784E-03
            2923            3341     12.8711E-03     11.7784E-03
            2906            3341     12.8711E-03     11.7784E-03
            2925            3342     51.1016E-03     51.7183E-03
            2907            3342     51.1016E-03     51.7183E-03
            2926            3342     51.1016E-03     51.7183E-03
            2908            3342     51.1016E-03     51.7183E-03
            2908            3343     47.7702E-03     48.5236E-03
            2927            3343     47.7702E-03     48.5236E-03
            2909            3343     47.7702E-03     48.5236E-03
            2926            3343     47.7702E-03     48.5236E-03
            2928            3344     44.1604E-03     45.0839E-03
            2909            3344     44.1604E-03     45.0839E-03
            2910            3344     44.1604E-03     45.0839E-03
            2927            3344     44.1604E-03     45.0839E-03
            2910            3345     40.3864E-03     41.3593E-03
            2929            3345     40.3864E-03     41.3593E-03
            2911            3345     40.3864E-03     41.3593E-03
            2928            3345     40.3864E-03     41.3593E-03
            2911            3346     36.5278E-03     37.4679E-03
            2930            3346     36.5278E-03     37.4679E-03
            2929            3346     36.5278E-03     37.4679E-03
            2912            3346     36.5278E-03     37.4679E-03
            2931            3347     32.6508E-03     33.5571E-03
            2930            3347     32.6508E-03     33.5571E-03
            2912            3347     32.6508E-03     33.5571E-03
            2913            3347     32.6508E-03     33.5571E-03
            2932            3348     28.8609E-03     29.7027E-03
            2913            3348     28.8609E-03     29.7027E-03
            2914            3348     28.8609E-03     29.7027E-03
            2931            3348     28.8609E-03     29.7027E-03
            2914            3349     25.1538E-03     25.9301E-03
            2933            3349     25.1538E-03     25.9301E-03
            2932            3349     25.1538E-03     25.9301E-03
            2915            3349     25.1538E-03     25.9301E-03
            2915            3350     21.5690E-03     22.2857E-03
            2934            3350     21.5690E-03     22.2857E-03
            2933            3350     21.5690E-03     22.2857E-03
            2916            3350     21.5690E-03     22.2857E-03
            2934            3351     18.1637E-03     18.8113E-03
            2917            3351     18.1637E-03     18.8113E-03
            2935            3351     18.1637E-03     18.8113E-03
            2916            3351     18.1637E-03     18.8113E-03
            2935            3352     15.0215E-03     15.5874E-03
            2917            3352     15.0215E-03     15.5874E-03
            2918            3352     15.0215E-03     15.5874E-03
            2936            3352     15.0215E-03     15.5874E-03
            2936            3353     12.3403E-03     12.7627E-03
            2918            3353     12.3403E-03     12.7627E-03
            2937            3353     12.3403E-03     12.7627E-03
            2919            3353     12.3403E-03     12.7627E-03
            2920            3354     10.4222E-03     10.5848E-03
            2937            3354     10.4222E-03     10.5848E-03
            2938            3354     10.4222E-03     10.5848E-03
            2919            3354     10.4222E-03     10.5848E-03
            2939            3355     9.56850E-03     9.34546E-03
            2920            3355     9.56850E-03     9.34546E-03
            2921            3355     9.56850E-03     9.34546E-03
            2938            3355     9.56850E-03     9.34546E-03
            2940            3356     9.96406E-03     9.30246E-03
            2922            3356     9.96406E-03     9.30246E-03
            2939            3356     9.96406E-03     9.30246E-03
            2921            3356     9.96406E-03     9.30246E-03
            2923            3357     11.3128E-03     10.3126E-03
            2940            3357     11.3128E-03     10.3126E-03
            2922            3357     11.3128E-03     10.3126E-03
            2941            3357     11.3128E-03     10.3126E-03
            2924            3358     13.2173E-03     12.0676E-03
            2941            3358     13.2173E-03     12.0676E-03
            2942            3358     13.2173E-03     12.0676E-03
            2923            3358     13.2173E-03     12.0676E-03
            2926            3359     53.2083E-03     53.7235E-03
            2944            3359     53.2083E-03     53.7235E-03
            2943            3359     53.2083E-03     53.7235E-03
            2925            3359     53.2083E-03     53.7235E-03
            2944            3360     49.1632E-03     50.0164E-03
            2926            3360     49.1632E-03     50.0164E-03
            2945            3360     49.1632E-03     50.0164E-03
            2927            3360     49.1632E-03     50.0164E-03
            2927            3361     44.9453E-03     45.8808E-03
            2945            3361     44.9453E-03     45.8808E-03
            2928            3361     44.9453E-03     45.8808E-03
            2946            3361     44.9453E-03     45.8808E-03
            2947            3362     40.6126E-03     41.5883E-03
            2946            3362     40.6126E-03     41.5883E-03
            2928            3362     40.6126E-03     41.5883E-03
            2929            3362     40.6126E-03     41.5883E-03
            2948            3363     36.3388E-03     37.3756E-03
            2947            3363     36.3388E-03     37.3756E-03
            2929            3363     36.3388E-03     37.3756E-03
            2930            3363     36.3388E-03     37.3756E-03
            2931            3364     32.3077E-03     33.3168E-03
            2949            3364     32.3077E-03     33.3168E-03
            2948            3364     32.3077E-03     33.3168E-03
            2930            3364     32.3077E-03     33.3168E-03
            2950            3365     28.4082E-03     29.3701E-03
            2932            3365     28.4082E-03     29.3701E-03
            2949            3365     28.4082E-03     29.3701E-03
            2931            3365     28.4082E-03     29.3701E-03
            2950            3366     24.6435E-03     25.5562E-03
            2951            3366     24.6435E-03     25.5562E-03
            2933            3366     24.6435E-03     25.5562E-03
            2932            3366     24.6435E-03     25.5562E-03
            2933            3367     21.0172E-03     21.8660E-03
            2934            3367     21.0172E-03     21.8660E-03
            2952            3367     21.0172E-03     21.8660E-03
            2951            3367     21.0172E-03     21.8660E-03
            2934            3368     17.5494E-03     18.3313E-03
            2952            3368     17.5494E-03     18.3313E-03
            2935            3368     17.5494E-03     18.3313E-03
            2953            3368     17.5494E-03     18.3313E-03
            2936            3369     14.3455E-03     15.0200E-03
            2953            3369     14.3455E-03     15.0200E-03
            2935            3369     14.3455E-03     15.0200E-03
            2954            3369     14.3455E-03     15.0200E-03
            2936            3370     11.5650E-03     12.0619E-03
            2937            3370     11.5650E-03     12.0619E-03
            2954            3370     11.5650E-03     12.0619E-03
            2955            3370     11.5650E-03     12.0619E-03
            2938            3371     9.59949E-03     9.76006E-03
            2937            3371     9.59949E-03     9.76006E-03
            2956            3371     9.59949E-03     9.76006E-03
            2955            3371     9.59949E-03     9.76006E-03
            2938            3372     8.93843E-03     8.59968E-03
            2957            3372     8.93843E-03     8.59968E-03
            2939            3372     8.93843E-03     8.59968E-03
            2956            3372     8.93843E-03     8.59968E-03
            2958            3373     9.65110E-03     8.84383E-03
            2940            3373     9.65110E-03     8.84383E-03
            2957            3373     9.65110E-03     8.84383E-03
            2939            3373     9.65110E-03     8.84383E-03
            2940            3374     11.4624E-03     10.3784E-03
            2958            3374     11.4624E-03     10.3784E-03
            2959            3374     11.4624E-03     10.3784E-03
            2941            3374     11.4624E-03     10.3784E-03
            2960            3375     13.8857E-03     12.6600E-03
            2941            3375     13.8857E-03     12.6600E-03
            2942            3375     13.8857E-03     12.6600E-03
            2959            3375     13.8857E-03     12.6600E-03
            2943            3376     55.0849E-03     55.9180E-03
            2944            3376     55.0849E-03     55.9180E-03
            2961            3376     55.0849E-03     55.9180E-03
            2962            3376     55.0849E-03     55.9180E-03
            2962            3377     50.4048E-03     51.1277E-03
            2944            3377     50.4048E-03     51.1277E-03
            2963            3377     50.4048E-03     51.1277E-03
            2945            3377     50.4048E-03     51.1277E-03
            2963            3378     45.1939E-03     46.0485E-03
            2945            3378     45.1939E-03     46.0485E-03
            2964            3378     45.1939E-03     46.0485E-03
            2946            3378     45.1939E-03     46.0485E-03
            2964            3379     40.1513E-03     41.2040E-03
            2965            3379     40.1513E-03     41.2040E-03
            2946            3379     40.1513E-03     41.2040E-03
            2947            3379     40.1513E-03     41.2040E-03
            2965            3380     35.7225E-03     36.8107E-03
            2947            3380     35.7225E-03     36.8107E-03
            2948            3380     35.7225E-03     36.8107E-03
            2966            3380     35.7225E-03     36.8107E-03
            2948            3381     31.5858E-03     32.6614E-03
            2966            3381     31.5858E-03     32.6614E-03
            2949            3381     31.5858E-03     32.6614E-03
            2967            3381     31.5858E-03     32.6614E-03
            2950            3382     27.6625E-03     28.7216E-03
            2967            3382     27.6625E-03     28.7216E-03
            2968            3382     27.6625E-03     28.7216E-03
            2949            3382     27.6625E-03     28.7216E-03
            2968            3383     23.9017E-03     24.9178E-03
            2951            3383     23.9017E-03     24.9178E-03
            2969            3383     23.9017E-03     24.9178E-03
            2950            3383     23.9017E-03     24.9178E-03
            2951            3384     20.2634E-03     21.2389E-03
            2969            3384     20.2634E-03     21.2389E-03
            2952            3384     20.2634E-03     21.2389E-03
            2970            3384     20.2634E-03     21.2389E-03
            2970            3385     16.7806E-03     17.6886E-03
            2971            3385     16.7806E-03     17.6886E-03
            2952            3385     16.7806E-03     17.6886E-03
            2953            3385     16.7806E-03     17.6886E-03
            2972            3386     13.5012E-03     14.3072E-03
            2971            3386     13.5012E-03     14.3072E-03
            2953            3386     13.5012E-03     14.3072E-03
            2954            3386     13.5012E-03     14.3072E-03
            2955            3387     10.6440E-03     11.2426E-03
            2972            3387     10.6440E-03     11.2426E-03
            2973            3387     10.6440E-03     11.2426E-03
            2954            3387     10.6440E-03     11.2426E-03
            2974            3388     8.58855E-03     8.80359E-03
            2955            3388     8.58855E-03     8.80359E-03
            2973            3388     8.58855E-03     8.80359E-03
            2956            3388     8.58855E-03     8.80359E-03
            2975            3389     8.07022E-03     7.69362E-03
            2974            3389     8.07022E-03     7.69362E-03
            2957            3389     8.07022E-03     7.69362E-03
            2956            3389     8.07022E-03     7.69362E-03
            2976            3390     9.46346E-03     8.52857E-03
            2958            3390     9.46346E-03     8.52857E-03
            2975            3390     9.46346E-03     8.52857E-03
            2957            3390     9.46346E-03     8.52857E-03
            2959            3391     11.9696E-03     10.7590E-03
            2976            3391     11.9696E-03     10.7590E-03
            2958            3391     11.9696E-03     10.7590E-03
            2977            3391     11.9696E-03     10.7590E-03
            2978            3392     14.7699E-03     13.5740E-03
            2959            3392     14.7699E-03     13.5740E-03
            2960            3392     14.7699E-03     13.5740E-03
            2977            3392     14.7699E-03     13.5740E-03
            2961            3393     57.2318E-03     57.3193E-03
            2962            3393     57.2318E-03     57.3193E-03
            2979            3393     57.2318E-03     57.3193E-03
            2980            3393     57.2318E-03     57.3193E-03
            2962            3394     50.7269E-03     51.3242E-03
            2980            3394     50.7269E-03     51.3242E-03
            2981            3394     50.7269E-03     51.3242E-03
            2963            3394     50.7269E-03     51.3242E-03
            2981            3395     44.2411E-03     45.2305E-03
            2982            3395     44.2411E-03     45.2305E-03
            2964            3395     44.2411E-03     45.2305E-03
            2963            3395     44.2411E-03     45.2305E-03
            2964            3396     39.1350E-03     40.2228E-03
            2982            3396     39.1350E-03     40.2228E-03
            2983            3396     39.1350E-03     40.2228E-03
            2965            3396     39.1350E-03     40.2228E-03
            2983            3397     34.6738E-03     35.7697E-03
            2984            3397     34.6738E-03     35.7697E-03
            2966            3397     34.6738E-03     35.7697E-03
            2965            3397     34.6738E-03     35.7697E-03
            2966            3398     30.5576E-03     31.6799E-03
            2984            3398     30.5576E-03     31.6799E-03
            2985            3398     30.5576E-03     31.6799E-03
            2967            3398     30.5576E-03     31.6799E-03
            2967            3399     26.6944E-03     27.8106E-03
            2985            3399     26.6944E-03     27.8106E-03
            2986            3399     26.6944E-03     27.8106E-03
            2968            3399     26.6944E-03     27.8106E-03
            2986            3400     22.9659E-03     24.0806E-03
            2987            3400     22.9659E-03     24.0806E-03
            2969            3400     22.9659E-03     24.0806E-03
            2968            3400     22.9659E-03     24.0806E-03
            2969            3401     19.3606E-03     20.4533E-03
            2970            3401     19.3606E-03     20.4533E-03
            2988            3401     19.3606E-03     20.4533E-03
            2987            3401     19.3606E-03     20.4533E-03
            2970            3402     15.8609E-03     16.9125E-03
            2988            3402     15.8609E-03     16.9125E-03
            2971            3402     15.8609E-03     16.9125E-03
            2989            3402     15.8609E-03     16.9125E-03
            2971            3403     12.5283E-03     13.4911E-03
            2990            3403     12.5283E-03     13.4911E-03
            2989            3403     12.5283E-03     13.4911E-03
            2972            3403     12.5283E-03     13.4911E-03
            2973            3404     9.50595E-03     10.2813E-03
            2972            3404     9.50595E-03     10.2813E-03
            2990            3404     9.50595E-03     10.2813E-03
            2991            3404     9.50595E-03     10.2813E-03
            2992            3405     7.33235E-03     7.67604E-03
            2974            3405     7.33235E-03     7.67604E-03
            2973            3405     7.33235E-03     7.67604E-03
            2991            3405     7.33235E-03     7.67604E-03
            2974            3406     6.83624E-03     6.51505E-03
            2992            3406     6.83624E-03     6.51505E-03
            2975            3406     6.83624E-03     6.51505E-03
            2993            3406     6.83624E-03     6.51505E-03
            2975            3407     8.67055E-03     7.76623E-03
            2994            3407     8.67055E-03     7.76623E-03
            2993            3407     8.67055E-03     7.76623E-03
            2976            3407     8.67055E-03     7.76623E-03
            2976            3408     12.4786E-03     11.2530E-03
            2995            3408     12.4786E-03     11.2530E-03
            2994            3408     12.4786E-03     11.2530E-03
            2977            3408     12.4786E-03     11.2530E-03
            2996            3409     16.4406E-03     15.0382E-03
            2978            3409     16.4406E-03     15.0382E-03
            2995            3409     16.4406E-03     15.0382E-03
            2977            3409     16.4406E-03     15.0382E-03
            2979            3410     57.4580E-03     58.1613E-03
            2998            3410     57.4580E-03     58.1613E-03
            2997            3410     57.4580E-03     58.1613E-03
            2980            3410     57.4580E-03     58.1613E-03
            2999            3411     48.8149E-03     49.8753E-03
            2998            3411     48.8149E-03     49.8753E-03
            2981            3411     48.8149E-03     49.8753E-03
            2980            3411     48.8149E-03     49.8753E-03
            2981            3412     42.5663E-03     43.5928E-03
            3000            3412     42.5663E-03     43.5928E-03
            2999            3412     42.5663E-03     43.5928E-03
            2982            3412     42.5663E-03     43.5928E-03
            2982            3413     37.7211E-03     38.7367E-03
            2983            3413     37.7211E-03     38.7367E-03
            3000            3413     37.7211E-03     38.7367E-03
            3001            3413     37.7211E-03     38.7367E-03
            2983            3414     33.3560E-03     34.4204E-03
            3001            3414     33.3560E-03     34.4204E-03
            3002            3414     33.3560E-03     34.4204E-03
            2984            3414     33.3560E-03     34.4204E-03
            3003            3415     29.3870E-03     30.5050E-03
            2984            3415     29.3870E-03     30.5050E-03
            3002            3415     29.3870E-03     30.5050E-03
            2985            3415     29.3870E-03     30.5050E-03
            2986            3416     25.5972E-03     26.7655E-03
            3003            3416     25.5972E-03     26.7655E-03
            3004            3416     25.5972E-03     26.7655E-03
            2985            3416     25.5972E-03     26.7655E-03
            2986            3417     21.9478E-03     23.1556E-03
            3005            3417     21.9478E-03     23.1556E-03
            2987            3417     21.9478E-03     23.1556E-03
            3004            3417     21.9478E-03     23.1556E-03
            2987            3418     18.3790E-03     19.6047E-03
            3005            3418     18.3790E-03     19.6047E-03
            3006            3418     18.3790E-03     19.6047E-03
            2988            3418     18.3790E-03     19.6047E-03
            3006            3419     14.8810E-03     16.1016E-03
            2989            3419     14.8810E-03     16.1016E-03
            3007            3419     14.8810E-03     16.1016E-03
            2988            3419     14.8810E-03     16.1016E-03
            2990            3420     11.4761E-03     12.6448E-03
            2989            3420     11.4761E-03     12.6448E-03
            3008            3420     11.4761E-03     12.6448E-03
            3007            3420     11.4761E-03     12.6448E-03
            3008            3421     8.26870E-03     9.29720E-03
            2991            3421     8.26870E-03     9.29720E-03
            3009            3421     8.26870E-03     9.29720E-03
            2990            3421     8.26870E-03     9.29720E-03
            3010            3422     5.70772E-03     6.33457E-03
            2991            3422     5.70772E-03     6.33457E-03
            2992            3422     5.70772E-03     6.33457E-03
            3009            3422     5.70772E-03     6.33457E-03
            2993            3423     5.16749E-03     4.99616E-03
            3010            3423     5.16749E-03     4.99616E-03
            3011            3423     5.16749E-03     4.99616E-03
            2992            3423     5.16749E-03     4.99616E-03
            3011            3424     7.20457E-03     6.41147E-03
            3012            3424     7.20457E-03     6.41147E-03
            2993            3424     7.20457E-03     6.41147E-03
            2994            3424     7.20457E-03     6.41147E-03
            2995            3425     11.5304E-03     10.6410E-03
            3013            3425     11.5304E-03     10.6410E-03
            2994            3425     11.5304E-03     10.6410E-03
            3012            3425     11.5304E-03     10.6410E-03
            3014            3426     17.6515E-03     16.8176E-03
            2996            3426     17.6515E-03     16.8176E-03
            3013            3426     17.6515E-03     16.8176E-03
            2995            3426     17.6515E-03     16.8176E-03
            3015            3427     55.8420E-03     57.1114E-03
            3016            3427     55.8420E-03     57.1114E-03
            2997            3427     55.8420E-03     57.1114E-03
            2998            3427     55.8420E-03     57.1114E-03
            2998            3428     49.9287E-03     50.0922E-03
            3017            3428     49.9287E-03     50.0922E-03
            3016            3428     49.9287E-03     50.0922E-03
            2999            3428     49.9287E-03     50.0922E-03
            3000            3429     45.6433E-03     45.7047E-03
            3017            3429     45.6433E-03     45.7047E-03
            3018            3429     45.6433E-03     45.7047E-03
            2999            3429     45.6433E-03     45.7047E-03
            3000            3430     41.5853E-03     41.7787E-03
            3019            3430     41.5853E-03     41.7787E-03
            3001            3430     41.5853E-03     41.7787E-03
            3018            3430     41.5853E-03     41.7787E-03
            3001            3431     37.8004E-03     38.1041E-03
            3002            3431     37.8004E-03     38.1041E-03
            3019            3431     37.8004E-03     38.1041E-03
            3020            3431     37.8004E-03     38.1041E-03
            3002            3432     34.0700E-03     34.5373E-03
            3003            3432     34.0700E-03     34.5373E-03
            3020            3432     34.0700E-03     34.5373E-03
            3021            3432     34.0700E-03     34.5373E-03
            3003            3433     30.4333E-03     30.9999E-03
            3022            3433     30.4333E-03     30.9999E-03
            3004            3433     30.4333E-03     30.9999E-03
            3021            3433     30.4333E-03     30.9999E-03
            3004            3434     26.8263E-03     27.4945E-03
            3023            3434     26.8263E-03     27.4945E-03
            3022            3434     26.8263E-03     27.4945E-03
            3005            3434     26.8263E-03     27.4945E-03
            3005            3435     23.2974E-03     24.0155E-03
            3024            3435     23.2974E-03     24.0155E-03
            3006            3435     23.2974E-03     24.0155E-03
            3023            3435     23.2974E-03     24.0155E-03
            3007            3436     19.8389E-03     20.5888E-03
            3024            3436     19.8389E-03     20.5888E-03
            3006            3436     19.8389E-03     20.5888E-03
            3025            3436     19.8389E-03     20.5888E-03
            3007            3437     16.5282E-03     17.2646E-03
            3008            3437     16.5282E-03     17.2646E-03
            3026            3437     16.5282E-03     17.2646E-03
            3025            3437     16.5282E-03     17.2646E-03
            3008            3438     13.4434E-03     14.1156E-03
            3026            3438     13.4434E-03     14.1156E-03
            3009            3438     13.4434E-03     14.1156E-03
            3027            3438     13.4434E-03     14.1156E-03
            3010            3439     10.8694E-03     11.3399E-03
            3028            3439     10.8694E-03     11.3399E-03
            3009            3439     10.8694E-03     11.3399E-03
            3027            3439     10.8694E-03     11.3399E-03
            3029            3440     9.65048E-03     9.72098E-03
            3010            3440     9.65048E-03     9.72098E-03
            3011            3440     9.65048E-03     9.72098E-03
            3028            3440     9.65048E-03     9.72098E-03
            3012            3441     10.3417E-03     10.1660E-03
            3029            3441     10.3417E-03     10.1660E-03
            3030            3441     10.3417E-03     10.1660E-03
            3011            3441     10.3417E-03     10.1660E-03
            3013            3442     12.1286E-03     12.4041E-03
            3012            3442     12.1286E-03     12.4041E-03
            3030            3442     12.1286E-03     12.4041E-03
            3031            3442     12.1286E-03     12.4041E-03
            3013            3443     15.7547E-03     17.7223E-03
            3031            3443     15.7547E-03     17.7223E-03
            3032            3443     15.7547E-03     17.7223E-03
            3014            3443     15.7547E-03     17.7223E-03
            3033            3444     57.7693E-03     57.3257E-03
            3034            3444     57.7693E-03     57.3257E-03
            3016            3444     57.7693E-03     57.3257E-03
            3015            3444     57.7693E-03     57.3257E-03
            3035            3445     54.4137E-03     54.1577E-03
            3016            3445     54.4137E-03     54.1577E-03
            3034            3445     54.4137E-03     54.1577E-03
            3017            3445     54.4137E-03     54.1577E-03
            3017            3446     51.0020E-03     50.6743E-03
            3036            3446     51.0020E-03     50.6743E-03
            3018            3446     51.0020E-03     50.6743E-03
            3035            3446     51.0020E-03     50.6743E-03
            3018            3447     47.4725E-03     47.2162E-03
            3036            3447     47.4725E-03     47.2162E-03
            3019            3447     47.4725E-03     47.2162E-03
            3037            3447     47.4725E-03     47.2162E-03
            3038            3448     43.7621E-03     43.6153E-03
            3037            3448     43.7621E-03     43.6153E-03
            3019            3448     43.7621E-03     43.6153E-03
            3020            3448     43.7621E-03     43.6153E-03
            3038            3449     39.9634E-03     39.9275E-03
            3020            3449     39.9634E-03     39.9275E-03
            3021            3449     39.9634E-03     39.9275E-03
            3039            3449     39.9634E-03     39.9275E-03
            3039            3450     36.1000E-03     36.1682E-03
            3040            3450     36.1000E-03     36.1682E-03
            3021            3450     36.1000E-03     36.1682E-03
            3022            3450     36.1000E-03     36.1682E-03
            3041            3451     32.2402E-03     32.3813E-03
            3023            3451     32.2402E-03     32.3813E-03
            3022            3451     32.2402E-03     32.3813E-03
            3040            3451     32.2402E-03     32.3813E-03
            3042            3452     28.4336E-03     28.6339E-03
            3023            3452     28.4336E-03     28.6339E-03
            3041            3452     28.4336E-03     28.6339E-03
            3024            3452     28.4336E-03     28.6339E-03
            3025            3453     24.7678E-03     24.9901E-03
            3024            3453     24.7678E-03     24.9901E-03
            3042            3453     24.7678E-03     24.9901E-03
            3043            3453     24.7678E-03     24.9901E-03
            3025            3454     21.3345E-03     21.5677E-03
            3043            3454     21.3345E-03     21.5677E-03
            3044            3454     21.3345E-03     21.5677E-03
            3026            3454     21.3345E-03     21.5677E-03
            3027            3455     18.2953E-03     18.5092E-03
            3045            3455     18.2953E-03     18.5092E-03
            3044            3455     18.2953E-03     18.5092E-03
            3026            3455     18.2953E-03     18.5092E-03
            3045            3456     15.8354E-03     16.0574E-03
            3027            3456     15.8354E-03     16.0574E-03
            3046            3456     15.8354E-03     16.0574E-03
            3028            3456     15.8354E-03     16.0574E-03
            3029            3457     14.2129E-03     14.4963E-03
            3028            3457     14.2129E-03     14.4963E-03
            3046            3457     14.2129E-03     14.4963E-03
            3047            3457     14.2129E-03     14.4963E-03
            3030            3458     13.5946E-03     14.1083E-03
            3047            3458     13.5946E-03     14.1083E-03
            3029            3458     13.5946E-03     14.1083E-03
            3048            3458     13.5946E-03     14.1083E-03
            3048            3459     13.9315E-03     15.0666E-03
            3049            3459     13.9315E-03     15.0666E-03
            3031            3459     13.9315E-03     15.0666E-03
            3030            3459     13.9315E-03     15.0666E-03
            3050            3460     15.8086E-03     17.3327E-03
            3031            3460     15.8086E-03     17.3327E-03
            3032            3460     15.8086E-03     17.3327E-03
            3049            3460     15.8086E-03     17.3327E-03
            3034            3461     61.3126E-03     61.5330E-03
            3033            3461     61.3126E-03     61.5330E-03
            3051            3461     61.3126E-03     61.5330E-03
            3052            3461     61.3126E-03     61.5330E-03
            3052            3462     57.8235E-03     58.3027E-03
            3035            3462     57.8235E-03     58.3027E-03
            3034            3462     57.8235E-03     58.3027E-03
            3053            3462     57.8235E-03     58.3027E-03
            3053            3463     53.7803E-03     54.2721E-03
            3054            3463     53.7803E-03     54.2721E-03
            3036            3463     53.7803E-03     54.2721E-03
            3035            3463     53.7803E-03     54.2721E-03
            3036            3464     49.7189E-03     50.0889E-03
            3054            3464     49.7189E-03     50.0889E-03
            3055            3464     49.7189E-03     50.0889E-03
            3037            3464     49.7189E-03     50.0889E-03
            3055            3465     45.4767E-03     45.7960E-03
            3056            3465     45.4767E-03     45.7960E-03
            3038            3465     45.4767E-03     45.7960E-03
            3037            3465     45.4767E-03     45.7960E-03
            3038            3466     41.1350E-03     41.4445E-03
            3056            3466     41.1350E-03     41.4445E-03
            3039            3466     41.1350E-03     41.4445E-03
            3057            3466     41.1350E-03     41.4445E-03
            3058            3467     36.7481E-03     37.0571E-03
            3039            3467     36.7481E-03     37.0571E-03
            3057            3467     36.7481E-03     37.0571E-03
            3040            3467     36.7481E-03     37.0571E-03
            3059            3468     32.3660E-03     32.6928E-03
            3041            3468     32.3660E-03     32.6928E-03
            3058            3468     32.3660E-03     32.6928E-03
            3040            3468     32.3660E-03     32.6928E-03
            3042            3469     28.0615E-03     28.3939E-03
            3059            3469     28.0615E-03     28.3939E-03
            3041            3469     28.0615E-03     28.3939E-03
            3060            3469     28.0615E-03     28.3939E-03
            3043            3470     23.9087E-03     24.2490E-03
            3042            3470     23.9087E-03     24.2490E-03
            3060            3470     23.9087E-03     24.2490E-03
            3061            3470     23.9087E-03     24.2490E-03
            3044            3471     20.0345E-03     20.3698E-03
            3062            3471     20.0345E-03     20.3698E-03
            3061            3471     20.0345E-03     20.3698E-03
            3043            3471     20.0345E-03     20.3698E-03
            3063            3472     16.6307E-03     16.9649E-03
            3062            3472     16.6307E-03     16.9649E-03
            3044            3472     16.6307E-03     16.9649E-03
            3045            3472     16.6307E-03     16.9649E-03
            3064            3473     14.0221E-03     14.3646E-03
            3045            3473     14.0221E-03     14.3646E-03
            3046            3473     14.0221E-03     14.3646E-03
            3063            3473     14.0221E-03     14.3646E-03
            3046            3474     12.6443E-03     13.0112E-03
            3064            3474     12.6443E-03     13.0112E-03
            3047            3474     12.6443E-03     13.0112E-03
            3065            3474     12.6443E-03     13.0112E-03
            3065            3475     12.7485E-03     13.2011E-03
            3047            3475     12.7485E-03     13.2011E-03
            3048            3475     12.7485E-03     13.2011E-03
            3066            3475     12.7485E-03     13.2011E-03
            3066            3476     14.6108E-03     14.7740E-03
            3067            3476     14.6108E-03     14.7740E-03
            3048            3476     14.6108E-03     14.7740E-03
            3049            3476     14.6108E-03     14.7740E-03
            3050            3477     17.4785E-03     16.5223E-03
            3067            3477     17.4785E-03     16.5223E-03
            3068            3477     17.4785E-03     16.5223E-03
            3049            3477     17.4785E-03     16.5223E-03
            3070            3478     63.9433E-03     64.7570E-03
            3052            3478     63.9433E-03     64.7570E-03
            3069            3478     63.9433E-03     64.7570E-03
            3051            3478     63.9433E-03     64.7570E-03
            3053            3479     60.3422E-03     61.2381E-03
            3070            3479     60.3422E-03     61.2381E-03
            3052            3479     60.3422E-03     61.2381E-03
            3071            3479     60.3422E-03     61.2381E-03
            3053            3480     56.1937E-03     57.0705E-03
            3054            3480     56.1937E-03     57.0705E-03
            3071            3480     56.1937E-03     57.0705E-03
            3072            3480     56.1937E-03     57.0705E-03
            3073            3481     51.6472E-03     52.4865E-03
            3055            3481     51.6472E-03     52.4865E-03
            3054            3481     51.6472E-03     52.4865E-03
            3072            3481     51.6472E-03     52.4865E-03
            3055            3482     47.0066E-03     47.7241E-03
            3074            3482     47.0066E-03     47.7241E-03
            3073            3482     47.0066E-03     47.7241E-03
            3056            3482     47.0066E-03     47.7241E-03
            3056            3483     42.2276E-03     42.8652E-03
            3074            3483     42.2276E-03     42.8652E-03
            3075            3483     42.2276E-03     42.8652E-03
            3057            3483     42.2276E-03     42.8652E-03
            3058            3484     37.4142E-03     37.9983E-03
            3076            3484     37.4142E-03     37.9983E-03
            3075            3484     37.4142E-03     37.9983E-03
            3057            3484     37.4142E-03     37.9983E-03
            3076            3485     32.6209E-03     33.1607E-03
            3058            3485     32.6209E-03     33.1607E-03
            3077            3485     32.6209E-03     33.1607E-03
            3059            3485     32.6209E-03     33.1607E-03
            3060            3486     27.9088E-03     28.4248E-03
            3078            3486     27.9088E-03     28.4248E-03
            3059            3486     27.9088E-03     28.4248E-03
            3077            3486     27.9088E-03     28.4248E-03
            3079            3487     23.3641E-03     23.8578E-03
            3061            3487     23.3641E-03     23.8578E-03
            3060            3487     23.3641E-03     23.8578E-03
            3078            3487     23.3641E-03     23.8578E-03
            3079            3488     19.1180E-03     19.5945E-03
            3080            3488     19.1180E-03     19.5945E-03
            3062            3488     19.1180E-03     19.5945E-03
            3061            3488     19.1180E-03     19.5945E-03
            3063            3489     15.4174E-03     15.8700E-03
            3080            3489     15.4174E-03     15.8700E-03
            3062            3489     15.4174E-03     15.8700E-03
            3081            3489     15.4174E-03     15.8700E-03
            3064            3490     12.7112E-03     13.1041E-03
            3063            3490     12.7112E-03     13.1041E-03
            3082            3490     12.7112E-03     13.1041E-03
            3081            3490     12.7112E-03     13.1041E-03
            3083            3491     11.5948E-03     11.8541E-03
            3064            3491     11.5948E-03     11.8541E-03
            3065            3491     11.5948E-03     11.8541E-03
            3082            3491     11.5948E-03     11.8541E-03
            3083            3492     12.4579E-03     12.3530E-03
            3066            3492     12.4579E-03     12.3530E-03
            3065            3492     12.4579E-03     12.3530E-03
            3084            3492     12.4579E-03     12.3530E-03
            3066            3493     14.8031E-03     14.0122E-03
            3085            3493     14.8031E-03     14.0122E-03
            3084            3493     14.8031E-03     14.0122E-03
            3067            3493     14.8031E-03     14.0122E-03
            3086            3494     17.2572E-03     16.0620E-03
            3067            3494     17.2572E-03     16.0620E-03
            3068            3494     17.2572E-03     16.0620E-03
            3085            3494     17.2572E-03     16.0620E-03
            3088            3495     66.2973E-03     66.9770E-03
            3070            3495     66.2973E-03     66.9770E-03
            3087            3495     66.2973E-03     66.9770E-03
            3069            3495     66.2973E-03     66.9770E-03
            3071            3496     62.3214E-03     63.3631E-03
            3089            3496     62.3214E-03     63.3631E-03
            3088            3496     62.3214E-03     63.3631E-03
            3070            3496     62.3214E-03     63.3631E-03
            3071            3497     57.9342E-03     59.0663E-03
            3072            3497     57.9342E-03     59.0663E-03
            3089            3497     57.9342E-03     59.0663E-03
            3090            3497     57.9342E-03     59.0663E-03
            3072            3498     53.1832E-03     54.2578E-03
            3091            3498     53.1832E-03     54.2578E-03
            3090            3498     53.1832E-03     54.2578E-03
            3073            3498     53.1832E-03     54.2578E-03
            3091            3499     48.1598E-03     49.1705E-03
            3073            3499     48.1598E-03     49.1705E-03
            3074            3499     48.1598E-03     49.1705E-03
            3092            3499     48.1598E-03     49.1705E-03
            3093            3500     43.0585E-03     43.9681E-03
            3074            3500     43.0585E-03     43.9681E-03
            3092            3500     43.0585E-03     43.9681E-03
            3075            3500     43.0585E-03     43.9681E-03
            3076            3501     37.9184E-03     38.7401E-03
            3075            3501     37.9184E-03     38.7401E-03
            3094            3501     37.9184E-03     38.7401E-03
            3093            3501     37.9184E-03     38.7401E-03
            3076            3502     32.8131E-03     33.5695E-03
            3077            3502     32.8131E-03     33.5695E-03
            3094            3502     32.8131E-03     33.5695E-03
            3095            3502     32.8131E-03     33.5695E-03
            3077            3503     27.8028E-03     28.5043E-03
            3096            3503     27.8028E-03     28.5043E-03
            3078            3503     27.8028E-03     28.5043E-03
            3095            3503     27.8028E-03     28.5043E-03
            3078            3504     22.9637E-03     23.6238E-03
            3096            3504     22.9637E-03     23.6238E-03
            3097            3504     22.9637E-03     23.6238E-03
            3079            3504     22.9637E-03     23.6238E-03
            3079            3505     18.4295E-03     19.0504E-03
            3098            3505     18.4295E-03     19.0504E-03
            3080            3505     18.4295E-03     19.0504E-03
            3097            3505     18.4295E-03     19.0504E-03
            3080            3506     14.4822E-03     15.0351E-03
            3081            3506     14.4822E-03     15.0351E-03
            3098            3506     14.4822E-03     15.0351E-03
            3099            3506     14.4822E-03     15.0351E-03
            3081            3507     11.6923E-03     12.0713E-03
            3099            3507     11.6923E-03     12.0713E-03
            3082            3507     11.6923E-03     12.0713E-03
            3100            3507     11.6923E-03     12.0713E-03
            3083            3508     10.7989E-03     10.7953E-03
            3100            3508     10.7989E-03     10.7953E-03
            3101            3508     10.7989E-03     10.7953E-03
            3082            3508     10.7989E-03     10.7953E-03
            3084            3509     12.0077E-03     11.4243E-03
            3101            3509     12.0077E-03     11.4243E-03
            3102            3509     12.0077E-03     11.4243E-03
            3083            3509     12.0077E-03     11.4243E-03
            3102            3510     14.4358E-03     13.3765E-03
            3084            3510     14.4358E-03     13.3765E-03
            3103            3510     14.4358E-03     13.3765E-03
            3085            3510     14.4358E-03     13.3765E-03
            3086            3511     17.3101E-03     15.8979E-03
            3104            3511     17.3101E-03     15.8979E-03
            3085            3511     17.3101E-03     15.8979E-03
            3103            3511     17.3101E-03     15.8979E-03
            3106            3512     68.2951E-03     69.0439E-03
            3088            3512     68.2951E-03     69.0439E-03
            3087            3512     68.2951E-03     69.0439E-03
            3105            3512     68.2951E-03     69.0439E-03
            3089            3513     63.9692E-03     65.0127E-03
            3106            3513     63.9692E-03     65.0127E-03
            3088            3513     63.9692E-03     65.0127E-03
            3107            3513     63.9692E-03     65.0127E-03
            3108            3514     59.2672E-03     60.4638E-03
            3090            3514     59.2672E-03     60.4638E-03
            3089            3514     59.2672E-03     60.4638E-03
            3107            3514     59.2672E-03     60.4638E-03
            3091            3515     54.1885E-03     55.4242E-03
            3108            3515     54.1885E-03     55.4242E-03
            3090            3515     54.1885E-03     55.4242E-03
            3109            3515     54.1885E-03     55.4242E-03
            3092            3516     48.8974E-03     50.0812E-03
            3109            3516     48.8974E-03     50.0812E-03
            3110            3516     48.8974E-03     50.0812E-03
            3091            3516     48.8974E-03     50.0812E-03
            3092            3517     43.5154E-03     44.6151E-03
            3093            3517     43.5154E-03     44.6151E-03
            3111            3517     43.5154E-03     44.6151E-03
            3110            3517     43.5154E-03     44.6151E-03
            3112            3518     38.1374E-03     39.1541E-03
            3093            3518     38.1374E-03     39.1541E-03
            3111            3518     38.1374E-03     39.1541E-03
            3094            3518     38.1374E-03     39.1541E-03
            3112            3519     32.8255E-03     33.7622E-03
            3094            3519     32.8255E-03     33.7622E-03
            3095            3519     32.8255E-03     33.7622E-03
            3113            3519     32.8255E-03     33.7622E-03
            3095            3520     27.6176E-03     28.4874E-03
            3114            3520     27.6176E-03     28.4874E-03
            3113            3520     27.6176E-03     28.4874E-03
            3096            3520     27.6176E-03     28.4874E-03
            3096            3521     22.5753E-03     23.3899E-03
            3097            3521     22.5753E-03     23.3899E-03
            3114            3521     22.5753E-03     23.3899E-03
            3115            3521     22.5753E-03     23.3899E-03
            3115            3522     17.8367E-03     18.5851E-03
            3097            3522     17.8367E-03     18.5851E-03
            3098            3522     17.8367E-03     18.5851E-03
            3116            3522     17.8367E-03     18.5851E-03
            3117            3523     13.6903E-03     14.3176E-03
            3099            3523     13.6903E-03     14.3176E-03
            3098            3523     13.6903E-03     14.3176E-03
            3116            3523     13.6903E-03     14.3176E-03
            3118            3524     10.7775E-03     11.1072E-03
            3117            3524     10.7775E-03     11.1072E-03
            3100            3524     10.7775E-03     11.1072E-03
            3099            3524     10.7775E-03     11.1072E-03
            3119            3525     10.0237E-03     9.77610E-03
            3101            3525     10.0237E-03     9.77610E-03
            3100            3525     10.0237E-03     9.77610E-03
            3118            3525     10.0237E-03     9.77610E-03
            3101            3526     11.4715E-03     10.6082E-03
            3120            3526     11.4715E-03     10.6082E-03
            3102            3526     11.4715E-03     10.6082E-03
            3119            3526     11.4715E-03     10.6082E-03
            3121            3527     14.2559E-03     12.9609E-03
            3103            3527     14.2559E-03     12.9609E-03
            3102            3527     14.2559E-03     12.9609E-03
            3120            3527     14.2559E-03     12.9609E-03
            3121            3528     17.5490E-03     16.0273E-03
            3122            3528     17.5490E-03     16.0273E-03
            3103            3528     17.5490E-03     16.0273E-03
            3104            3528     17.5490E-03     16.0273E-03
            3124            3529     70.0903E-03     70.9076E-03
            3105            3529     70.0903E-03     70.9076E-03
            3106            3529     70.0903E-03     70.9076E-03
            3123            3529     70.0903E-03     70.9076E-03
            3124            3530     65.3787E-03     66.4004E-03
            3106            3530     65.3787E-03     66.4004E-03
            3125            3530     65.3787E-03     66.4004E-03
            3107            3530     65.3787E-03     66.4004E-03
            3107            3531     60.1976E-03     61.4335E-03
            3108            3531     60.1976E-03     61.4335E-03
            3125            3531     60.1976E-03     61.4335E-03
            3126            3531     60.1976E-03     61.4335E-03
            3109            3532     54.7320E-03     56.0375E-03
            3108            3532     54.7320E-03     56.0375E-03
            3126            3532     54.7320E-03     56.0375E-03
            3127            3532     54.7320E-03     56.0375E-03
            3127            3533     49.1396E-03     50.4105E-03
            3109            3533     49.1396E-03     50.4105E-03
            3110            3533     49.1396E-03     50.4105E-03
            3128            3533     49.1396E-03     50.4105E-03
            3111            3534     43.5250E-03     44.7540E-03
            3110            3534     43.5250E-03     44.7540E-03
            3129            3534     43.5250E-03     44.7540E-03
            3128            3534     43.5250E-03     44.7540E-03
            3112            3535     38.0097E-03     39.1615E-03
            3129            3535     38.0097E-03     39.1615E-03
            3111            3535     38.0097E-03     39.1615E-03
            3130            3535     38.0097E-03     39.1615E-03
            3131            3536     32.5812E-03     33.6559E-03
            3112            3536     32.5812E-03     33.6559E-03
            3130            3536     32.5812E-03     33.6559E-03
            3113            3536     32.5812E-03     33.6559E-03
            3131            3537     27.2669E-03     28.2762E-03
            3113            3537     27.2669E-03     28.2762E-03
            3114            3537     27.2669E-03     28.2762E-03
            3132            3537     27.2669E-03     28.2762E-03
            3115            3538     22.1174E-03     23.0575E-03
            3132            3538     22.1174E-03     23.0575E-03
            3133            3538     22.1174E-03     23.0575E-03
            3114            3538     22.1174E-03     23.0575E-03
            3134            3539     17.2280E-03     18.0893E-03
            3116            3539     17.2280E-03     18.0893E-03
            3115            3539     17.2280E-03     18.0893E-03
            3133            3539     17.2280E-03     18.0893E-03
            3116            3540     12.9147E-03     13.6024E-03
            3134            3540     12.9147E-03     13.6024E-03
            3135            3540     12.9147E-03     13.6024E-03
            3117            3540     12.9147E-03     13.6024E-03
            3135            3541     9.90609E-03     10.1696E-03
            3118            3541     9.90609E-03     10.1696E-03
            3136            3541     9.90609E-03     10.1696E-03
            3117            3541     9.90609E-03     10.1696E-03
            3136            3542     9.20819E-03     8.77664E-03
            3118            3542     9.20819E-03     8.77664E-03
            3119            3542     9.20819E-03     8.77664E-03
            3137            3542     9.20819E-03     8.77664E-03
            3120            3543     11.0583E-03     9.96945E-03
            3137            3543     11.0583E-03     9.96945E-03
            3138            3543     11.0583E-03     9.96945E-03
            3119            3543     11.0583E-03     9.96945E-03
            3138            3544     14.3420E-03     12.8871E-03
            3139            3544     14.3420E-03     12.8871E-03
            3121            3544     14.3420E-03     12.8871E-03
            3120            3544     14.3420E-03     12.8871E-03
            3122            3545     18.0469E-03     16.4782E-03
            3121            3545     18.0469E-03     16.4782E-03
            3140            3545     18.0469E-03     16.4782E-03
            3139            3545     18.0469E-03     16.4782E-03
            3141            3546     71.8472E-03     72.5367E-03
            3142            3546     71.8472E-03     72.5367E-03
            3123            3546     71.8472E-03     72.5367E-03
            3124            3546     71.8472E-03     72.5367E-03
            3125            3547     66.4618E-03     67.5865E-03
            3142            3547     66.4618E-03     67.5865E-03
            3124            3547     66.4618E-03     67.5865E-03
            3143            3547     66.4618E-03     67.5865E-03
            3143            3548     60.7138E-03     61.9468E-03
            3144            3548     60.7138E-03     61.9468E-03
            3125            3548     60.7138E-03     61.9468E-03
            3126            3548     60.7138E-03     61.9468E-03
            3126            3549     54.7403E-03     56.0134E-03
            3127            3549     54.7403E-03     56.0134E-03
            3145            3549     54.7403E-03     56.0134E-03
            3144            3549     54.7403E-03     56.0134E-03
            3128            3550     48.7823E-03     50.1178E-03
            3146            3550     48.7823E-03     50.1178E-03
            3127            3550     48.7823E-03     50.1178E-03
            3145            3550     48.7823E-03     50.1178E-03
            3129            3551     43.0759E-03     44.3674E-03
            3128            3551     43.0759E-03     44.3674E-03
            3146            3551     43.0759E-03     44.3674E-03
            3147            3551     43.0759E-03     44.3674E-03
            3129            3552     37.4955E-03     38.7274E-03
            3130            3552     37.4955E-03     38.7274E-03
            3147            3552     37.4955E-03     38.7274E-03
            3148            3552     37.4955E-03     38.7274E-03
            3131            3553     32.0460E-03     33.2212E-03
            3130            3553     32.0460E-03     33.2212E-03
            3148            3553     32.0460E-03     33.2212E-03
            3149            3553     32.0460E-03     33.2212E-03
            3149            3554     26.7172E-03     27.8265E-03
            3131            3554     26.7172E-03     27.8265E-03
            3150            3554     26.7172E-03     27.8265E-03
            3132            3554     26.7172E-03     27.8265E-03
            3150            3555     21.5179E-03     22.5681E-03
            3151            3555     21.5179E-03     22.5681E-03
            3133            3555     21.5179E-03     22.5681E-03
            3132            3555     21.5179E-03     22.5681E-03
            3134            3556     16.5557E-03     17.5090E-03
            3152            3556     16.5557E-03     17.5090E-03
            3151            3556     16.5557E-03     17.5090E-03
            3133            3556     16.5557E-03     17.5090E-03
            3152            3557     12.0641E-03     12.8280E-03
            3153            3557     12.0641E-03     12.8280E-03
            3135            3557     12.0641E-03     12.8280E-03
            3134            3557     12.0641E-03     12.8280E-03
            3153            3558     8.89625E-03     9.14604E-03
            3135            3558     8.89625E-03     9.14604E-03
            3136            3558     8.89625E-03     9.14604E-03
            3154            3558     8.89625E-03     9.14604E-03
            3155            3559     8.45640E-03     7.84900E-03
            3137            3559     8.45640E-03     7.84900E-03
            3136            3559     8.45640E-03     7.84900E-03
            3154            3559     8.45640E-03     7.84900E-03
            3155            3560     10.8112E-03     9.53503E-03
            3137            3560     10.8112E-03     9.53503E-03
            3156            3560     10.8112E-03     9.53503E-03
            3138            3560     10.8112E-03     9.53503E-03
            3156            3561     14.6513E-03     13.1356E-03
            3157            3561     14.6513E-03     13.1356E-03
            3138            3561     14.6513E-03     13.1356E-03
            3139            3561     14.6513E-03     13.1356E-03
            3157            3562     18.9088E-03     17.2672E-03
            3140            3562     18.9088E-03     17.2672E-03
            3158            3562     18.9088E-03     17.2672E-03
            3139            3562     18.9088E-03     17.2672E-03
            3142            3563     73.2769E-03     74.3289E-03
            3159            3563     73.2769E-03     74.3289E-03
            3141            3563     73.2769E-03     74.3289E-03
            3160            3563     73.2769E-03     74.3289E-03
            3142            3564     67.2951E-03     68.2461E-03
            3160            3564     67.2951E-03     68.2461E-03
            3143            3564     67.2951E-03     68.2461E-03
            3161            3564     67.2951E-03     68.2461E-03
            3162            3565     60.5504E-03     61.6476E-03
            3143            3565     60.5504E-03     61.6476E-03
            3161            3565     60.5504E-03     61.6476E-03
            3144            3565     60.5504E-03     61.6476E-03
            3144            3566     53.8974E-03     55.2062E-03
            3162            3566     53.8974E-03     55.2062E-03
            3163            3566     53.8974E-03     55.2062E-03
            3145            3566     53.8974E-03     55.2062E-03
            3146            3567     47.8843E-03     49.2068E-03
            3163            3567     47.8843E-03     49.2068E-03
            3164            3567     47.8843E-03     49.2068E-03
            3145            3567     47.8843E-03     49.2068E-03
            3147            3568     42.1473E-03     43.4453E-03
            3165            3568     42.1473E-03     43.4453E-03
            3146            3568     42.1473E-03     43.4453E-03
            3164            3568     42.1473E-03     43.4453E-03
            3166            3569     36.6204E-03     37.8942E-03
            3147            3569     36.6204E-03     37.8942E-03
            3165            3569     36.6204E-03     37.8942E-03
            3148            3569     36.6204E-03     37.8942E-03
            3148            3570     31.2395E-03     32.4674E-03
            3167            3570     31.2395E-03     32.4674E-03
            3166            3570     31.2395E-03     32.4674E-03
            3149            3570     31.2395E-03     32.4674E-03
            3167            3571     25.9563E-03     27.1500E-03
            3168            3571     25.9563E-03     27.1500E-03
            3149            3571     25.9563E-03     27.1500E-03
            3150            3571     25.9563E-03     27.1500E-03
            3168            3572     20.7863E-03     21.9262E-03
            3169            3572     20.7863E-03     21.9262E-03
            3150            3572     20.7863E-03     21.9262E-03
            3151            3572     20.7863E-03     21.9262E-03
            3151            3573     15.7616E-03     16.8243E-03
            3170            3573     15.7616E-03     16.8243E-03
            3169            3573     15.7616E-03     16.8243E-03
            3152            3573     15.7616E-03     16.8243E-03
            3153            3574     11.1343E-03     11.9956E-03
            3171            3574     11.1343E-03     11.9956E-03
            3170            3574     11.1343E-03     11.9956E-03
            3152            3574     11.1343E-03     11.9956E-03
            3153            3575     7.68469E-03     8.00288E-03
            3171            3575     7.68469E-03     8.00288E-03
            3172            3575     7.68469E-03     8.00288E-03
            3154            3575     7.68469E-03     8.00288E-03
            3154            3576     7.32453E-03     6.68563E-03
            3172            3576     7.32453E-03     6.68563E-03
            3173            3576     7.32453E-03     6.68563E-03
            3155            3576     7.32453E-03     6.68563E-03
            3173            3577     10.6003E-03     9.19611E-03
            3155            3577     10.6003E-03     9.19611E-03
            3156            3577     10.6003E-03     9.19611E-03
            3174            3577     10.6003E-03     9.19611E-03
            3174            3578     15.3627E-03     13.6976E-03
            3156            3578     15.3627E-03     13.6976E-03
            3175            3578     15.3627E-03     13.6976E-03
            3157            3578     15.3627E-03     13.6976E-03
            3157            3579     19.9845E-03     18.4125E-03
            3158            3579     19.9845E-03     18.4125E-03
            3175            3579     19.9845E-03     18.4125E-03
            3176            3579     19.9845E-03     18.4125E-03
            3178            3580     74.9187E-03     75.0428E-03
            3177            3580     74.9187E-03     75.0428E-03
            3159            3580     74.9187E-03     75.0428E-03
            3160            3580     74.9187E-03     75.0428E-03
            3160            3581     67.0150E-03     67.7497E-03
            3178            3581     67.0150E-03     67.7497E-03
            3161            3581     67.0150E-03     67.7497E-03
            3179            3581     67.0150E-03     67.7497E-03
            3161            3582     58.9724E-03     60.1354E-03
            3162            3582     58.9724E-03     60.1354E-03
            3180            3582     58.9724E-03     60.1354E-03
            3179            3582     58.9724E-03     60.1354E-03
            3162            3583     52.3931E-03     53.6323E-03
            3180            3583     52.3931E-03     53.6323E-03
            3181            3583     52.3931E-03     53.6323E-03
            3163            3583     52.3931E-03     53.6323E-03
            3164            3584     46.4494E-03     47.6862E-03
            3181            3584     46.4494E-03     47.6862E-03
            3182            3584     46.4494E-03     47.6862E-03
            3163            3584     46.4494E-03     47.6862E-03
            3182            3585     40.8428E-03     42.1057E-03
            3183            3585     40.8428E-03     42.1057E-03
            3164            3585     40.8428E-03     42.1057E-03
            3165            3585     40.8428E-03     42.1057E-03
            3165            3586     35.4740E-03     36.7337E-03
            3166            3586     35.4740E-03     36.7337E-03
            3184            3586     35.4740E-03     36.7337E-03
            3183            3586     35.4740E-03     36.7337E-03
            3167            3587     30.2185E-03     31.4876E-03
            3166            3587     30.2185E-03     31.4876E-03
            3184            3587     30.2185E-03     31.4876E-03
            3185            3587     30.2185E-03     31.4876E-03
            3168            3588     25.0552E-03     26.3154E-03
            3167            3588     25.0552E-03     26.3154E-03
            3185            3588     25.0552E-03     26.3154E-03
            3186            3588     25.0552E-03     26.3154E-03
            3187            3589     19.9510E-03     21.1920E-03
            3169            3589     19.9510E-03     21.1920E-03
            3186            3589     19.9510E-03     21.1920E-03
            3168            3589     19.9510E-03     21.1920E-03
            3188            3590     14.9284E-03     16.1152E-03
            3187            3590     14.9284E-03     16.1152E-03
            3169            3590     14.9284E-03     16.1152E-03
            3170            3590     14.9284E-03     16.1152E-03
            3188            3591     10.0969E-03     11.1437E-03
            3170            3591     10.0969E-03     11.1437E-03
            3189            3591     10.0969E-03     11.1437E-03
            3171            3591     10.0969E-03     11.1437E-03
            3189            3592     6.26669E-03     6.76598E-03
            3190            3592     6.26669E-03     6.76598E-03
            3172            3592     6.26669E-03     6.76598E-03
            3171            3592     6.26669E-03     6.76598E-03
            3190            3593     5.76402E-03     5.24772E-03
            3191            3593     5.76402E-03     5.24772E-03
            3172            3593     5.76402E-03     5.24772E-03
            3173            3593     5.76402E-03     5.24772E-03
            3174            3594     9.50732E-03     8.28168E-03
            3173            3594     9.50732E-03     8.28168E-03
            3191            3594     9.50732E-03     8.28168E-03
            3192            3594     9.50732E-03     8.28168E-03
            3174            3595     15.7918E-03     14.2712E-03
            3175            3595     15.7918E-03     14.2712E-03
            3193            3595     15.7918E-03     14.2712E-03
            3192            3595     15.7918E-03     14.2712E-03
            3194            3596     21.9810E-03     20.1027E-03
            3175            3596     21.9810E-03     20.1027E-03
            3176            3596     21.9810E-03     20.1027E-03
            3193            3596     21.9810E-03     20.1027E-03
            3178            3597     74.3208E-03     74.9411E-03
            3195            3597     74.3208E-03     74.9411E-03
            3177            3597     74.3208E-03     74.9411E-03
            3196            3597     74.3208E-03     74.9411E-03
            3179            3598     64.2018E-03     65.2622E-03
            3197            3598     64.2018E-03     65.2622E-03
            3178            3598     64.2018E-03     65.2622E-03
            3196            3598     64.2018E-03     65.2622E-03
            3198            3599     56.5844E-03     57.5919E-03
            3180            3599     56.5844E-03     57.5919E-03
            3179            3599     56.5844E-03     57.5919E-03
            3197            3599     56.5844E-03     57.5919E-03
            3181            3600     50.4104E-03     51.4186E-03
            3198            3600     50.4104E-03     51.4186E-03
            3199            3600     50.4104E-03     51.4186E-03
            3180            3600     50.4104E-03     51.4186E-03
            3199            3601     44.6938E-03     45.7748E-03
            3182            3601     44.6938E-03     45.7748E-03
            3200            3601     44.6938E-03     45.7748E-03
            3181            3601     44.6938E-03     45.7748E-03
            3201            3602     39.3619E-03     40.5230E-03
            3200            3602     39.3619E-03     40.5230E-03
            3183            3602     39.3619E-03     40.5230E-03
            3182            3602     39.3619E-03     40.5230E-03
            3202            3603     34.1863E-03     35.4252E-03
            3184            3603     34.1863E-03     35.4252E-03
            3183            3603     34.1863E-03     35.4252E-03
            3201            3603     34.1863E-03     35.4252E-03
            3202            3604     29.1296E-03     30.4316E-03
            3203            3604     29.1296E-03     30.4316E-03
            3185            3604     29.1296E-03     30.4316E-03
            3184            3604     29.1296E-03     30.4316E-03
            3185            3605     24.1253E-03     25.4691E-03
            3204            3605     24.1253E-03     25.4691E-03
            3203            3605     24.1253E-03     25.4691E-03
            3186            3605     24.1253E-03     25.4691E-03
            3186            3606     19.1470E-03     20.5097E-03
            3187            3606     19.1470E-03     20.5097E-03
            3205            3606     19.1470E-03     20.5097E-03
            3204            3606     19.1470E-03     20.5097E-03
            3188            3607     14.1911E-03     15.5359E-03
            3187            3607     14.1911E-03     15.5359E-03
            3206            3607     14.1911E-03     15.5359E-03
            3205            3607     14.1911E-03     15.5359E-03
            3189            3608     9.24955E-03     10.5258E-03
            3206            3608     9.24955E-03     10.5258E-03
            3188            3608     9.24955E-03     10.5258E-03
            3207            3608     9.24955E-03     10.5258E-03
            3208            3609     4.67610E-03     5.65301E-03
            3189            3609     4.67610E-03     5.65301E-03
            3190            3609     4.67610E-03     5.65301E-03
            3207            3609     4.67610E-03     5.65301E-03
            3209            3610     3.84798E-03     3.68928E-03
            3208            3610     3.84798E-03     3.68928E-03
            3191            3610     3.84798E-03     3.68928E-03
            3190            3610     3.84798E-03     3.68928E-03
            3191            3611     7.81305E-03     6.84632E-03
            3192            3611     7.81305E-03     6.84632E-03
            3209            3611     7.81305E-03     6.84632E-03
            3210            3611     7.81305E-03     6.84632E-03
            3210            3612     14.3130E-03     13.5574E-03
            3193            3612     14.3130E-03     13.5574E-03
            3211            3612     14.3130E-03     13.5574E-03
            3192            3612     14.3130E-03     13.5574E-03
            3193            3613     22.8507E-03     22.2112E-03
            3212            3613     22.8507E-03     22.2112E-03
            3211            3613     22.8507E-03     22.2112E-03
            3194            3613     22.8507E-03     22.2112E-03
            3196            3614     72.1408E-03     73.7884E-03
            3195            3614     72.1408E-03     73.7884E-03
            3214            3614     72.1408E-03     73.7884E-03
            3213            3614     72.1408E-03     73.7884E-03
            3197            3615     64.4305E-03     64.6559E-03
            3215            3615     64.4305E-03     64.6559E-03
            3214            3615     64.4305E-03     64.6559E-03
            3196            3615     64.4305E-03     64.6559E-03
            3197            3616     58.7688E-03     58.8574E-03
            3216            3616     58.7688E-03     58.8574E-03
            3215            3616     58.7688E-03     58.8574E-03
            3198            3616     58.7688E-03     58.8574E-03
            3198            3617     53.3331E-03     53.6028E-03
            3199            3617     53.3331E-03     53.6028E-03
            3217            3617     53.3331E-03     53.6028E-03
            3216            3617     53.3331E-03     53.6028E-03
            3200            3618     48.2456E-03     48.6529E-03
            3217            3618     48.2456E-03     48.6529E-03
            3199            3618     48.2456E-03     48.6529E-03
            3218            3618     48.2456E-03     48.6529E-03
            3218            3619     43.1856E-03     43.8028E-03
            3219            3619     43.1856E-03     43.8028E-03
            3200            3619     43.1856E-03     43.8028E-03
            3201            3619     43.1856E-03     43.8028E-03
            3202            3620     38.2399E-03     38.9810E-03
            3220            3620     38.2399E-03     38.9810E-03
            3219            3620     38.2399E-03     38.9810E-03
            3201            3620     38.2399E-03     38.9810E-03
            3221            3621     33.3120E-03     34.1769E-03
            3202            3621     33.3120E-03     34.1769E-03
            3220            3621     33.3120E-03     34.1769E-03
            3203            3621     33.3120E-03     34.1769E-03
            3204            3622     28.4584E-03     29.3846E-03
            3203            3622     28.4584E-03     29.3846E-03
            3222            3622     28.4584E-03     29.3846E-03
            3221            3622     28.4584E-03     29.3846E-03
            3222            3623     23.6847E-03     24.6474E-03
            3204            3623     23.6847E-03     24.6474E-03
            3205            3623     23.6847E-03     24.6474E-03
            3223            3623     23.6847E-03     24.6474E-03
            3224            3624     19.0479E-03     19.9962E-03
            3223            3624     19.0479E-03     19.9962E-03
            3205            3624     19.0479E-03     19.9962E-03
            3206            3624     19.0479E-03     19.9962E-03
            3224            3625     14.6421E-03     15.5326E-03
            3207            3625     14.6421E-03     15.5326E-03
            3225            3625     14.6421E-03     15.5326E-03
            3206            3625     14.6421E-03     15.5326E-03
            3225            3626     10.6050E-03     11.3822E-03
            3226            3626     10.6050E-03     11.3822E-03
            3208            3626     10.6050E-03     11.3822E-03
            3207            3626     10.6050E-03     11.3822E-03
            3208            3627     8.99845E-03     9.17149E-03
            3226            3627     8.99845E-03     9.17149E-03
            3227            3627     8.99845E-03     9.17149E-03
            3209            3627     8.99845E-03     9.17149E-03
            3227            3628     10.9735E-03     10.7108E-03
            3210            3628     10.9735E-03     10.7108E-03
            3209            3628     10.9735E-03     10.7108E-03
            3228            3628     10.9735E-03     10.7108E-03
            3210            3629     14.2419E-03     14.6668E-03
            3228            3629     14.2419E-03     14.6668E-03
            3229            3629     14.2419E-03     14.6668E-03
            3211            3629     14.2419E-03     14.6668E-03
            3212            3630     20.0978E-03     22.5540E-03
            3211            3630     20.0978E-03     22.5540E-03
            3230            3630     20.0978E-03     22.5540E-03
            3229            3630     20.0978E-03     22.5540E-03
            3214            3631     74.6136E-03     74.3371E-03
            3213            3631     74.6136E-03     74.3371E-03
            3232            3631     74.6136E-03     74.3371E-03
            3231            3631     74.6136E-03     74.3371E-03
            3214            3632     68.9890E-03     69.0043E-03
            3233            3632     68.9890E-03     69.0043E-03
            3232            3632     68.9890E-03     69.0043E-03
            3215            3632     68.9890E-03     69.0043E-03
            3215            3633     63.8207E-03     63.7739E-03
            3216            3633     63.8207E-03     63.7739E-03
            3233            3633     63.8207E-03     63.7739E-03
            3234            3633     63.8207E-03     63.7739E-03
            3235            3634     58.8032E-03     58.8129E-03
            3217            3634     58.8032E-03     58.8129E-03
            3234            3634     58.8032E-03     58.8129E-03
            3216            3634     58.8032E-03     58.8129E-03
            3217            3635     53.6406E-03     53.7925E-03
            3235            3635     53.6406E-03     53.7925E-03
            3236            3635     53.6406E-03     53.7925E-03
            3218            3635     53.6406E-03     53.7925E-03
            3218            3636     48.4664E-03     48.7397E-03
            3236            3636     48.4664E-03     48.7397E-03
            3219            3636     48.4664E-03     48.7397E-03
            3237            3636     48.4664E-03     48.7397E-03
            3238            3637     43.2339E-03     43.6200E-03
            3219            3637     43.2339E-03     43.6200E-03
            3237            3637     43.2339E-03     43.6200E-03
            3220            3637     43.2339E-03     43.6200E-03
            3220            3638     38.0301E-03     38.4986E-03
            3238            3638     38.0301E-03     38.4986E-03
            3221            3638     38.0301E-03     38.4986E-03
            3239            3638     38.0301E-03     38.4986E-03
            3240            3639     32.8973E-03     33.4137E-03
            3222            3639     32.8973E-03     33.4137E-03
            3239            3639     32.8973E-03     33.4137E-03
            3221            3639     32.8973E-03     33.4137E-03
            3223            3640     27.9284E-03     28.4595E-03
            3241            3640     27.9284E-03     28.4595E-03
            3222            3640     27.9284E-03     28.4595E-03
            3240            3640     27.9284E-03     28.4595E-03
            3241            3641     23.2673E-03     23.7721E-03
            3242            3641     23.2673E-03     23.7721E-03
            3224            3641     23.2673E-03     23.7721E-03
            3223            3641     23.2673E-03     23.7721E-03
            3242            3642     19.1319E-03     19.5666E-03
            3243            3642     19.1319E-03     19.5666E-03
            3224            3642     19.1319E-03     19.5666E-03
            3225            3642     19.1319E-03     19.5666E-03
            3244            3643     15.9384E-03     16.2813E-03
            3225            3643     15.9384E-03     16.2813E-03
            3243            3643     15.9384E-03     16.2813E-03
            3226            3643     15.9384E-03     16.2813E-03
            3226            3644     14.2237E-03     14.4970E-03
            3244            3644     14.2237E-03     14.4970E-03
            3227            3644     14.2237E-03     14.4970E-03
            3245            3644     14.2237E-03     14.4970E-03
            3245            3645     14.3289E-03     14.7207E-03
            3228            3645     14.3289E-03     14.7207E-03
            3227            3645     14.3289E-03     14.7207E-03
            3246            3645     14.3289E-03     14.7207E-03
            3247            3646     16.1982E-03     17.0899E-03
            3228            3646     16.1982E-03     17.0899E-03
            3229            3646     16.1982E-03     17.0899E-03
            3246            3646     16.1982E-03     17.0899E-03
            3247            3647     20.2849E-03     21.3723E-03
            3230            3647     20.2849E-03     21.3723E-03
            3229            3647     20.2849E-03     21.3723E-03
            3248            3647     20.2849E-03     21.3723E-03
            3232            3648     78.4471E-03     78.7038E-03
            3249            3648     78.4471E-03     78.7038E-03
            3250            3648     78.4471E-03     78.7038E-03
            3231            3648     78.4471E-03     78.7038E-03
            3251            3649     73.0741E-03     73.7916E-03
            3250            3649     73.0741E-03     73.7916E-03
            3232            3649     73.0741E-03     73.7916E-03
            3233            3649     73.0741E-03     73.7916E-03
            3251            3650     67.1065E-03     67.9077E-03
            3233            3650     67.1065E-03     67.9077E-03
            3234            3650     67.1065E-03     67.9077E-03
            3252            3650     67.1065E-03     67.9077E-03
            3252            3651     61.3762E-03     62.0913E-03
            3235            3651     61.3762E-03     62.0913E-03
            3253            3651     61.3762E-03     62.0913E-03
            3234            3651     61.3762E-03     62.0913E-03
            3253            3652     55.5987E-03     56.2447E-03
            3236            3652     55.5987E-03     56.2447E-03
            3235            3652     55.5987E-03     56.2447E-03
            3254            3652     55.5987E-03     56.2447E-03
            3236            3653     49.7626E-03     50.4002E-03
            3254            3653     49.7626E-03     50.4002E-03
            3255            3653     49.7626E-03     50.4002E-03
            3237            3653     49.7626E-03     50.4002E-03
            3237            3654     43.9261E-03     44.5627E-03
            3238            3654     43.9261E-03     44.5627E-03
            3255            3654     43.9261E-03     44.5627E-03
            3256            3654     43.9261E-03     44.5627E-03
            3256            3655     38.1173E-03     38.7609E-03
            3238            3655     38.1173E-03     38.7609E-03
            3257            3655     38.1173E-03     38.7609E-03
            3239            3655     38.1173E-03     38.7609E-03
            3240            3656     32.3968E-03     33.0449E-03
            3257            3656     32.3968E-03     33.0449E-03
            3258            3656     32.3968E-03     33.0449E-03
            3239            3656     32.3968E-03     33.0449E-03
            3258            3657     26.8537E-03     27.4902E-03
            3240            3657     26.8537E-03     27.4902E-03
            3241            3657     26.8537E-03     27.4902E-03
            3259            3657     26.8537E-03     27.4902E-03
            3241            3658     21.6223E-03     22.2328E-03
            3242            3658     21.6223E-03     22.2328E-03
            3259            3658     21.6223E-03     22.2328E-03
            3260            3658     21.6223E-03     22.2328E-03
            3243            3659     17.0348E-03     17.5806E-03
            3261            3659     17.0348E-03     17.5806E-03
            3242            3659     17.0348E-03     17.5806E-03
            3260            3659     17.0348E-03     17.5806E-03
            3243            3660     13.6629E-03     14.1042E-03
            3244            3660     13.6629E-03     14.1042E-03
            3262            3660     13.6629E-03     14.1042E-03
            3261            3660     13.6629E-03     14.1042E-03
            3263            3661     12.4678E-03     12.7453E-03
            3245            3661     12.4678E-03     12.7453E-03
            3262            3661     12.4678E-03     12.7453E-03
            3244            3661     12.4678E-03     12.7453E-03
            3245            3662     13.8257E-03     13.9589E-03
            3263            3662     13.8257E-03     13.9589E-03
            3246            3662     13.8257E-03     13.9589E-03
            3264            3662     13.8257E-03     13.9589E-03
            3246            3663     17.6106E-03     17.2407E-03
            3264            3663     17.6106E-03     17.2407E-03
            3265            3663     17.6106E-03     17.2407E-03
            3247            3663     17.6106E-03     17.2407E-03
            3265            3664     22.2638E-03     20.6681E-03
            3247            3664     22.2638E-03     20.6681E-03
            3248            3664     22.2638E-03     20.6681E-03
            3266            3664     22.2638E-03     20.6681E-03
            3249            3665     80.8317E-03     81.9430E-03
            3268            3665     80.8317E-03     81.9430E-03
            3267            3665     80.8317E-03     81.9430E-03
            3250            3665     80.8317E-03     81.9430E-03
            3250            3666     75.7653E-03     76.8932E-03
            3268            3666     75.7653E-03     76.8932E-03
            3251            3666     75.7653E-03     76.8932E-03
            3269            3666     75.7653E-03     76.8932E-03
            3269            3667     69.8178E-03     71.0322E-03
            3270            3667     69.8178E-03     71.0322E-03
            3252            3667     69.8178E-03     71.0322E-03
            3251            3667     69.8178E-03     71.0322E-03
            3270            3668     63.5399E-03     64.7276E-03
            3271            3668     63.5399E-03     64.7276E-03
            3253            3668     63.5399E-03     64.7276E-03
            3252            3668     63.5399E-03     64.7276E-03
            3271            3669     57.2655E-03     58.3331E-03
            3254            3669     57.2655E-03     58.3331E-03
            3272            3669     57.2655E-03     58.3331E-03
            3253            3669     57.2655E-03     58.3331E-03
            3255            3670     50.9211E-03     51.9014E-03
            3254            3670     50.9211E-03     51.9014E-03
            3272            3670     50.9211E-03     51.9014E-03
            3273            3670     50.9211E-03     51.9014E-03
            3256            3671     44.6028E-03     45.5063E-03
            3255            3671     44.6028E-03     45.5063E-03
            3273            3671     44.6028E-03     45.5063E-03
            3274            3671     44.6028E-03     45.5063E-03
            3274            3672     38.3233E-03     39.1800E-03
            3275            3672     38.3233E-03     39.1800E-03
            3257            3672     38.3233E-03     39.1800E-03
            3256            3672     38.3233E-03     39.1800E-03
            3258            3673     32.1521E-03     32.9678E-03
            3276            3673     32.1521E-03     32.9678E-03
            3275            3673     32.1521E-03     32.9678E-03
            3257            3673     32.1521E-03     32.9678E-03
            3258            3674     26.1489E-03     26.9331E-03
            3276            3674     26.1489E-03     26.9331E-03
            3277            3674     26.1489E-03     26.9331E-03
            3259            3674     26.1489E-03     26.9331E-03
            3278            3675     20.4810E-03     21.2215E-03
            3277            3675     20.4810E-03     21.2215E-03
            3260            3675     20.4810E-03     21.2215E-03
            3259            3675     20.4810E-03     21.2215E-03
            3261            3676     15.4860E-03     16.1528E-03
            3278            3676     15.4860E-03     16.1528E-03
            3279            3676     15.4860E-03     16.1528E-03
            3260            3676     15.4860E-03     16.1528E-03
            3280            3677     12.0883E-03     12.5304E-03
            3279            3677     12.0883E-03     12.5304E-03
            3261            3677     12.0883E-03     12.5304E-03
            3262            3677     12.0883E-03     12.5304E-03
            3262            3678     11.4336E-03     11.4705E-03
            3263            3678     11.4336E-03     11.4705E-03
            3280            3678     11.4336E-03     11.4705E-03
            3281            3678     11.4336E-03     11.4705E-03
            3264            3679     13.9027E-03     13.3251E-03
            3282            3679     13.9027E-03     13.3251E-03
            3263            3679     13.9027E-03     13.3251E-03
            3281            3679     13.9027E-03     13.3251E-03
            3282            3680     18.1191E-03     16.7602E-03
            3283            3680     18.1191E-03     16.7602E-03
            3265            3680     18.1191E-03     16.7602E-03
            3264            3680     18.1191E-03     16.7602E-03
            3283            3681     22.0297E-03     20.3694E-03
            3265            3681     22.0297E-03     20.3694E-03
            3266            3681     22.0297E-03     20.3694E-03
            3284            3681     22.0297E-03     20.3694E-03
            3285            3682     82.9998E-03     83.8209E-03
            3286            3682     82.9998E-03     83.8209E-03
            3267            3682     82.9998E-03     83.8209E-03
            3268            3682     82.9998E-03     83.8209E-03
            3269            3683     77.5178E-03     78.9342E-03
            3286            3683     77.5178E-03     78.9342E-03
            3287            3683     77.5178E-03     78.9342E-03
            3268            3683     77.5178E-03     78.9342E-03
            3270            3684     71.5740E-03     73.0197E-03
            3269            3684     71.5740E-03     73.0197E-03
            3287            3684     71.5740E-03     73.0197E-03
            3288            3684     71.5740E-03     73.0197E-03
            3271            3685     65.0911E-03     66.5207E-03
            3270            3685     65.0911E-03     66.5207E-03
            3289            3685     65.0911E-03     66.5207E-03
            3288            3685     65.0911E-03     66.5207E-03
            3289            3686     58.3896E-03     59.7578E-03
            3272            3686     58.3896E-03     59.7578E-03
            3290            3686     58.3896E-03     59.7578E-03
            3271            3686     58.3896E-03     59.7578E-03
            3291            3687     51.7086E-03     52.9374E-03
            3272            3687     51.7086E-03     52.9374E-03
            3290            3687     51.7086E-03     52.9374E-03
            3273            3687     51.7086E-03     52.9374E-03
            3291            3688     45.0205E-03     46.1624E-03
            3292            3688     45.0205E-03     46.1624E-03
            3273            3688     45.0205E-03     46.1624E-03
            3274            3688     45.0205E-03     46.1624E-03
            3274            3689     38.4361E-03     39.4858E-03
            3275            3689     38.4361E-03     39.4858E-03
            3292            3689     38.4361E-03     39.4858E-03
            3293            3689     38.4361E-03     39.4858E-03
            3293            3690     31.9446E-03     32.9326E-03
            3276            3690     31.9446E-03     32.9326E-03
            3275            3690     31.9446E-03     32.9326E-03
            3294            3690     31.9446E-03     32.9326E-03
            3276            3691     25.6274E-03     26.5621E-03
            3294            3691     25.6274E-03     26.5621E-03
            3277            3691     25.6274E-03     26.5621E-03
            3295            3691     25.6274E-03     26.5621E-03
            3277            3692     19.6232E-03     20.5019E-03
            3278            3692     19.6232E-03     20.5019E-03
            3296            3692     19.6232E-03     20.5019E-03
            3295            3692     19.6232E-03     20.5019E-03
            3278            3693     14.3451E-03     15.0956E-03
            3279            3693     14.3451E-03     15.0956E-03
            3296            3693     14.3451E-03     15.0956E-03
            3297            3693     14.3451E-03     15.0956E-03
            3280            3694     10.8364E-03     11.2277E-03
            3297            3694     10.8364E-03     11.2277E-03
            3279            3694     10.8364E-03     11.2277E-03
            3298            3694     10.8364E-03     11.2277E-03
            3280            3695     10.6957E-03     10.3594E-03
            3298            3695     10.6957E-03     10.3594E-03
            3281            3695     10.6957E-03     10.3594E-03
            3299            3695     10.6957E-03     10.3594E-03
            3299            3696     13.7074E-03     12.5805E-03
            3300            3696     13.7074E-03     12.5805E-03
            3281            3696     13.7074E-03     12.5805E-03
            3282            3696     13.7074E-03     12.5805E-03
            3283            3697     17.9077E-03     16.3613E-03
            3300            3697     17.9077E-03     16.3613E-03
            3282            3697     17.9077E-03     16.3613E-03
            3301            3697     17.9077E-03     16.3613E-03
            3301            3698     22.2936E-03     20.4082E-03
            3302            3698     22.2936E-03     20.4082E-03
            3284            3698     22.2936E-03     20.4082E-03
            3283            3698     22.2936E-03     20.4082E-03
            3286            3699     84.5296E-03     85.6112E-03
            3285            3699     84.5296E-03     85.6112E-03
            3304            3699     84.5296E-03     85.6112E-03
            3303            3699     84.5296E-03     85.6112E-03
            3305            3700     78.9685E-03     80.2313E-03
            3304            3700     78.9685E-03     80.2313E-03
            3286            3700     78.9685E-03     80.2313E-03
            3287            3700     78.9685E-03     80.2313E-03
            3287            3701     72.5951E-03     74.1714E-03
            3306            3701     72.5951E-03     74.1714E-03
            3288            3701     72.5951E-03     74.1714E-03
            3305            3701     72.5951E-03     74.1714E-03
            3306            3702     65.8469E-03     67.4289E-03
            3288            3702     65.8469E-03     67.4289E-03
            3307            3702     65.8469E-03     67.4289E-03
            3289            3702     65.8469E-03     67.4289E-03
            3307            3703     58.9071E-03     60.3915E-03
            3308            3703     58.9071E-03     60.3915E-03
            3289            3703     58.9071E-03     60.3915E-03
            3290            3703     58.9071E-03     60.3915E-03
            3291            3704     51.9198E-03     53.3390E-03
            3308            3704     51.9198E-03     53.3390E-03
            3309            3704     51.9198E-03     53.3390E-03
            3290            3704     51.9198E-03     53.3390E-03
            3309            3705     45.0751E-03     46.3701E-03
            3292            3705     45.0751E-03     46.3701E-03
            3310            3705     45.0751E-03     46.3701E-03
            3291            3705     45.0751E-03     46.3701E-03
            3293            3706     38.2958E-03     39.5049E-03
            3310            3706     38.2958E-03     39.5049E-03
            3311            3706     38.2958E-03     39.5049E-03
            3292            3706     38.2958E-03     39.5049E-03
            3312            3707     31.6428E-03     32.7739E-03
            3293            3707     31.6428E-03     32.7739E-03
            3294            3707     31.6428E-03     32.7739E-03
            3311            3707     31.6428E-03     32.7739E-03
            3294            3708     25.1397E-03     26.2085E-03
            3295            3708     25.1397E-03     26.2085E-03
            3313            3708     25.1397E-03     26.2085E-03
            3312            3708     25.1397E-03     26.2085E-03
            3313            3709     18.9072E-03     19.9081E-03
            3296            3709     18.9072E-03     19.9081E-03
            3314            3709     18.9072E-03     19.9081E-03
            3295            3709     18.9072E-03     19.9081E-03
            3315            3710     13.3686E-03     14.1995E-03
            3296            3710     13.3686E-03     14.1995E-03
            3297            3710     13.3686E-03     14.1995E-03
            3314            3710     13.3686E-03     14.1995E-03
            3298            3711     9.80082E-03     10.0767E-03
            3316            3711     9.80082E-03     10.0767E-03
            3315            3711     9.80082E-03     10.0767E-03
            3297            3711     9.80082E-03     10.0767E-03
            3317            3712     9.88328E-03     9.23958E-03
            3316            3712     9.88328E-03     9.23958E-03
            3298            3712     9.88328E-03     9.23958E-03
            3299            3712     9.88328E-03     9.23958E-03
            3317            3713     13.3214E-03     11.9416E-03
            3299            3713     13.3214E-03     11.9416E-03
            3318            3713     13.3214E-03     11.9416E-03
            3300            3713     13.3214E-03     11.9416E-03
            3301            3714     18.0613E-03     16.2518E-03
            3319            3714     18.0613E-03     16.2518E-03
            3300            3714     18.0613E-03     16.2518E-03
            3318            3714     18.0613E-03     16.2518E-03
            3302            3715     22.7501E-03     20.8212E-03
            3301            3715     22.7501E-03     20.8212E-03
            3319            3715     22.7501E-03     20.8212E-03
            3320            3715     22.7501E-03     20.8212E-03
            3303            3716     86.1372E-03     86.9528E-03
            3304            3716     86.1372E-03     86.9528E-03
            3322            3716     86.1372E-03     86.9528E-03
            3321            3716     86.1372E-03     86.9528E-03
            3323            3717     79.8283E-03     81.2723E-03
            3304            3717     79.8283E-03     81.2723E-03
            3305            3717     79.8283E-03     81.2723E-03
            3322            3717     79.8283E-03     81.2723E-03
            3323            3718     73.0523E-03     74.5698E-03
            3306            3718     73.0523E-03     74.5698E-03
            3305            3718     73.0523E-03     74.5698E-03
            3324            3718     73.0523E-03     74.5698E-03
            3324            3719     65.8492E-03     67.4074E-03
            3306            3719     65.8492E-03     67.4074E-03
            3325            3719     65.8492E-03     67.4074E-03
            3307            3719     65.8492E-03     67.4074E-03
            3326            3720     58.5998E-03     60.1757E-03
            3307            3720     58.5998E-03     60.1757E-03
            3308            3720     58.5998E-03     60.1757E-03
            3325            3720     58.5998E-03     60.1757E-03
            3309            3721     51.5787E-03     53.0551E-03
            3326            3721     51.5787E-03     53.0551E-03
            3327            3721     51.5787E-03     53.0551E-03
            3308            3721     51.5787E-03     53.0551E-03
            3327            3722     44.6501E-03     46.0439E-03
            3310            3722     44.6501E-03     46.0439E-03
            3309            3722     44.6501E-03     46.0439E-03
            3328            3722     44.6501E-03     46.0439E-03
            3310            3723     37.8584E-03     39.1657E-03
            3329            3723     37.8584E-03     39.1657E-03
            3311            3723     37.8584E-03     39.1657E-03
            3328            3723     37.8584E-03     39.1657E-03
            3311            3724     31.1627E-03     32.4012E-03
            3330            3724     31.1627E-03     32.4012E-03
            3312            3724     31.1627E-03     32.4012E-03
            3329            3724     31.1627E-03     32.4012E-03
            3312            3725     24.5883E-03     25.7685E-03
            3330            3725     24.5883E-03     25.7685E-03
            3331            3725     24.5883E-03     25.7685E-03
            3313            3725     24.5883E-03     25.7685E-03
            3331            3726     18.2431E-03     19.3449E-03
            3332            3726     18.2431E-03     19.3449E-03
            3313            3726     18.2431E-03     19.3449E-03
            3314            3726     18.2431E-03     19.3449E-03
            3332            3727     12.4411E-03     13.3598E-03
            3314            3727     12.4411E-03     13.3598E-03
            3315            3727     12.4411E-03     13.3598E-03
            3333            3727     12.4411E-03     13.3598E-03
            3333            3728     8.61180E-03     8.85655E-03
            3316            3728     8.61180E-03     8.85655E-03
            3334            3728     8.61180E-03     8.85655E-03
            3315            3728     8.61180E-03     8.85655E-03
            3317            3729     9.02434E-03     8.15804E-03
            3334            3729     9.02434E-03     8.15804E-03
            3316            3729     9.02434E-03     8.15804E-03
            3335            3729     9.02434E-03     8.15804E-03
            3317            3730     13.1061E-03     11.4740E-03
            3336            3730     13.1061E-03     11.4740E-03
            3318            3730     13.1061E-03     11.4740E-03
            3335            3730     13.1061E-03     11.4740E-03
            3336            3731     18.3546E-03     16.5165E-03
            3337            3731     18.3546E-03     16.5165E-03
            3319            3731     18.3546E-03     16.5165E-03
            3318            3731     18.3546E-03     16.5165E-03
            3320            3732     23.6865E-03     21.6748E-03
            3338            3732     23.6865E-03     21.6748E-03
            3319            3732     23.6865E-03     21.6748E-03
            3337            3732     23.6865E-03     21.6748E-03
            3339            3733     87.1739E-03     88.4267E-03
            3340            3733     87.1739E-03     88.4267E-03
            3322            3733     87.1739E-03     88.4267E-03
            3321            3733     87.1739E-03     88.4267E-03
            3322            3734     80.4075E-03     81.5679E-03
            3341            3734     80.4075E-03     81.5679E-03
            3340            3734     80.4075E-03     81.5679E-03
            3323            3734     80.4075E-03     81.5679E-03
            3323            3735     72.6099E-03     73.9740E-03
            3341            3735     72.6099E-03     73.9740E-03
            3342            3735     72.6099E-03     73.9740E-03
            3324            3735     72.6099E-03     73.9740E-03
            3343            3736     64.8214E-03     66.3672E-03
            3324            3736     64.8214E-03     66.3672E-03
            3325            3736     64.8214E-03     66.3672E-03
            3342            3736     64.8214E-03     66.3672E-03
            3325            3737     57.6037E-03     59.1317E-03
            3344            3737     57.6037E-03     59.1317E-03
            3326            3737     57.6037E-03     59.1317E-03
            3343            3737     57.6037E-03     59.1317E-03
            3345            3738     50.6125E-03     52.0816E-03
            3344            3738     50.6125E-03     52.0816E-03
            3327            3738     50.6125E-03     52.0816E-03
            3326            3738     50.6125E-03     52.0816E-03
            3328            3739     43.8016E-03     45.2154E-03
            3345            3739     43.8016E-03     45.2154E-03
            3346            3739     43.8016E-03     45.2154E-03
            3327            3739     43.8016E-03     45.2154E-03
            3328            3740     37.1041E-03     38.4615E-03
            3329            3740     37.1041E-03     38.4615E-03
            3347            3740     37.1041E-03     38.4615E-03
            3346            3740     37.1041E-03     38.4615E-03
            3348            3741     30.4897E-03     31.8031E-03
            3330            3741     30.4897E-03     31.8031E-03
            3329            3741     30.4897E-03     31.8031E-03
            3347            3741     30.4897E-03     31.8031E-03
            3349            3742     23.9622E-03     25.2308E-03
            3330            3742     23.9622E-03     25.2308E-03
            3348            3742     23.9622E-03     25.2308E-03
            3331            3742     23.9622E-03     25.2308E-03
            3349            3743     17.5550E-03     18.7641E-03
            3331            3743     17.5550E-03     18.7641E-03
            3332            3743     17.5550E-03     18.7641E-03
            3350            3743     17.5550E-03     18.7641E-03
            3351            3744     11.5573E-03     12.5861E-03
            3350            3744     11.5573E-03     12.5861E-03
            3333            3744     11.5573E-03     12.5861E-03
            3332            3744     11.5573E-03     12.5861E-03
            3334            3745     7.24729E-03     7.56546E-03
            3351            3745     7.24729E-03     7.56546E-03
            3352            3745     7.24729E-03     7.56546E-03
            3333            3745     7.24729E-03     7.56546E-03
            3334            3746     7.64005E-03     6.76054E-03
            3352            3746     7.64005E-03     6.76054E-03
            3335            3746     7.64005E-03     6.76054E-03
            3353            3746     7.64005E-03     6.76054E-03
            3336            3747     12.7817E-03     11.0725E-03
            3354            3747     12.7817E-03     11.0725E-03
            3353            3747     12.7817E-03     11.0725E-03
            3335            3747     12.7817E-03     11.0725E-03
            3337            3748     19.1347E-03     17.1234E-03
            3336            3748     19.1347E-03     17.1234E-03
            3354            3748     19.1347E-03     17.1234E-03
            3355            3748     19.1347E-03     17.1234E-03
            3356            3749     24.8583E-03     22.9446E-03
            3355            3749     24.8583E-03     22.9446E-03
            3337            3749     24.8583E-03     22.9446E-03
            3338            3749     24.8583E-03     22.9446E-03
            3357            3750     88.3865E-03     88.5384E-03
            3358            3750     88.3865E-03     88.5384E-03
            3340            3750     88.3865E-03     88.5384E-03
            3339            3750     88.3865E-03     88.5384E-03
            3341            3751     79.6414E-03     80.5238E-03
            3340            3751     79.6414E-03     80.5238E-03
            3358            3751     79.6414E-03     80.5238E-03
            3359            3751     79.6414E-03     80.5238E-03
            3360            3752     70.6001E-03     71.9252E-03
            3359            3752     70.6001E-03     71.9252E-03
            3342            3752     70.6001E-03     71.9252E-03
            3341            3752     70.6001E-03     71.9252E-03
            3361            3753     62.9797E-03     64.3796E-03
            3342            3753     62.9797E-03     64.3796E-03
            3360            3753     62.9797E-03     64.3796E-03
            3343            3753     62.9797E-03     64.3796E-03
            3343            3754     55.9427E-03     57.3117E-03
            3361            3754     55.9427E-03     57.3117E-03
            3362            3754     55.9427E-03     57.3117E-03
            3344            3754     55.9427E-03     57.3117E-03
            3345            3755     49.1746E-03     50.5609E-03
            3362            3755     49.1746E-03     50.5609E-03
            3363            3755     49.1746E-03     50.5609E-03
            3344            3755     49.1746E-03     50.5609E-03
            3364            3756     42.6050E-03     43.9785E-03
            3363            3756     42.6050E-03     43.9785E-03
            3346            3756     42.6050E-03     43.9785E-03
            3345            3756     42.6050E-03     43.9785E-03
            3346            3757     36.1133E-03     37.4900E-03
            3365            3757     36.1133E-03     37.4900E-03
            3347            3757     36.1133E-03     37.4900E-03
            3364            3757     36.1133E-03     37.4900E-03
            3365            3758     29.6866E-03     31.0571E-03
            3366            3758     29.6866E-03     31.0571E-03
            3348            3758     29.6866E-03     31.0571E-03
            3347            3758     29.6866E-03     31.0571E-03
            3366            3759     23.2956E-03     24.6514E-03
            3349            3759     23.2956E-03     24.6514E-03
            3367            3759     23.2956E-03     24.6514E-03
            3348            3759     23.2956E-03     24.6514E-03
            3367            3760     16.9509E-03     18.2726E-03
            3350            3760     16.9509E-03     18.2726E-03
            3368            3760     16.9509E-03     18.2726E-03
            3349            3760     16.9509E-03     18.2726E-03
            3350            3761     10.7416E-03     11.9567E-03
            3351            3761     10.7416E-03     11.9567E-03
            3368            3761     10.7416E-03     11.9567E-03
            3369            3761     10.7416E-03     11.9567E-03
            3352            3762     5.72424E-03     6.28934E-03
            3351            3762     5.72424E-03     6.28934E-03
            3369            3762     5.72424E-03     6.28934E-03
            3370            3762     5.72424E-03     6.28934E-03
            3352            3763     5.78157E-03     5.13920E-03
            3371            3763     5.78157E-03     5.13920E-03
            3353            3763     5.78157E-03     5.13920E-03
            3370            3763     5.78157E-03     5.13920E-03
            3353            3764     11.4129E-03     10.0352E-03
            3354            3764     11.4129E-03     10.0352E-03
            3372            3764     11.4129E-03     10.0352E-03
            3371            3764     11.4129E-03     10.0352E-03
            3373            3765     19.4248E-03     17.7095E-03
            3354            3765     19.4248E-03     17.7095E-03
            3355            3765     19.4248E-03     17.7095E-03
            3372            3765     19.4248E-03     17.7095E-03
            3373            3766     27.0986E-03     24.8285E-03
            3355            3766     27.0986E-03     24.8285E-03
            3356            3766     27.0986E-03     24.8285E-03
            3374            3766     27.0986E-03     24.8285E-03
            3376            3767     87.1223E-03     87.6490E-03
            3357            3767     87.1223E-03     87.6490E-03
            3375            3767     87.1223E-03     87.6490E-03
            3358            3767     87.1223E-03     87.6490E-03
            3358            3768     76.1442E-03     77.1852E-03
            3377            3768     76.1442E-03     77.1852E-03
            3359            3768     76.1442E-03     77.1852E-03
            3376            3768     76.1442E-03     77.1852E-03
            3378            3769     67.6568E-03     68.6644E-03
            3360            3769     67.6568E-03     68.6644E-03
            3377            3769     67.6568E-03     68.6644E-03
            3359            3769     67.6568E-03     68.6644E-03
            3379            3770     60.5773E-03     61.5995E-03
            3360            3770     60.5773E-03     61.5995E-03
            3361            3770     60.5773E-03     61.5995E-03
            3378            3770     60.5773E-03     61.5995E-03
            3361            3771     53.8639E-03     54.9972E-03
            3362            3771     53.8639E-03     54.9972E-03
            3379            3771     53.8639E-03     54.9972E-03
            3380            3771     53.8639E-03     54.9972E-03
            3362            3772     47.4975E-03     48.7260E-03
            3381            3772     47.4975E-03     48.7260E-03
            3380            3772     47.4975E-03     48.7260E-03
            3363            3772     47.4975E-03     48.7260E-03
            3382            3773     41.2283E-03     42.5510E-03
            3381            3773     41.2283E-03     42.5510E-03
            3363            3773     41.2283E-03     42.5510E-03
            3364            3773     41.2283E-03     42.5510E-03
            3364            3774     35.0507E-03     36.4440E-03
            3382            3774     35.0507E-03     36.4440E-03
            3383            3774     35.0507E-03     36.4440E-03
            3365            3774     35.0507E-03     36.4440E-03
            3365            3775     28.8968E-03     30.3347E-03
            3383            3775     28.8968E-03     30.3347E-03
            3384            3775     28.8968E-03     30.3347E-03
            3366            3775     28.8968E-03     30.3347E-03
            3367            3776     22.7515E-03     24.2127E-03
            3385            3776     22.7515E-03     24.2127E-03
            3366            3776     22.7515E-03     24.2127E-03
            3384            3776     22.7515E-03     24.2127E-03
            3386            3777     16.6149E-03     18.0607E-03
            3385            3777     16.6149E-03     18.0607E-03
            3367            3777     16.6149E-03     18.0607E-03
            3368            3777     16.6149E-03     18.0607E-03
            3368            3778     10.4575E-03     11.8529E-03
            3369            3778     10.4575E-03     11.8529E-03
            3386            3778     10.4575E-03     11.8529E-03
            3387            3778     10.4575E-03     11.8529E-03
            3370            3779     4.80503E-03     5.78784E-03
            3388            3779     4.80503E-03     5.78784E-03
            3369            3779     4.80503E-03     5.78784E-03
            3387            3779     4.80503E-03     5.78784E-03
            3389            3780     4.25760E-03     4.03244E-03
            3371            3780     4.25760E-03     4.03244E-03
            3370            3780     4.25760E-03     4.03244E-03
            3388            3780     4.25760E-03     4.03244E-03
            3390            3781     9.60532E-03     8.67135E-03
            3371            3781     9.60532E-03     8.67135E-03
            3389            3781     9.60532E-03     8.67135E-03
            3372            3781     9.60532E-03     8.67135E-03
            3372            3782     17.4694E-03     16.8446E-03
            3373            3782     17.4694E-03     16.8446E-03
            3391            3782     17.4694E-03     16.8446E-03
            3390            3782     17.4694E-03     16.8446E-03
            3374            3783     27.7360E-03     27.2204E-03
            3373            3783     27.7360E-03     27.2204E-03
            3391            3783     27.7360E-03     27.2204E-03
            3392            3783     27.7360E-03     27.2204E-03
            4348            4562     68.5064E-03     70.6724E-03
            4366            4562     68.5064E-03     70.6724E-03
            4365            4562     68.5064E-03     70.6724E-03
            4347            4562     68.5064E-03     70.6724E-03
            4366            4563     62.9223E-03     64.1532E-03
            4367            4563     62.9223E-03     64.1532E-03
            4349            4563     62.9223E-03     64.1532E-03
            4348            4563     62.9223E-03     64.1532E-03
            4349            4564     59.1461E-03     60.2169E-03
            4350            4564     59.1461E-03     60.2169E-03
            4368            4564     59.1461E-03     60.2169E-03
            4367            4564     59.1461E-03     60.2169E-03
            4369            4565     55.6872E-03     56.8249E-03
            4368            4565     55.6872E-03     56.8249E-03
            4351            4565     55.6872E-03     56.8249E-03
            4350            4565     55.6872E-03     56.8249E-03
            4352            4566     52.5772E-03     53.7638E-03
            4351            4566     52.5772E-03     53.7638E-03
            4370            4566     52.5772E-03     53.7638E-03
            4369            4566     52.5772E-03     53.7638E-03
            4352            4567     49.5665E-03     50.8616E-03
            4370            4567     49.5665E-03     50.8616E-03
            4371            4567     49.5665E-03     50.8616E-03
            4353            4567     49.5665E-03     50.8616E-03
            4353            4568     46.6779E-03     48.0330E-03
            4371            4568     46.6779E-03     48.0330E-03
            4354            4568     46.6779E-03     48.0330E-03
            4372            4568     46.6779E-03     48.0330E-03
            4355            4569     43.8233E-03     45.2478E-03
            4373            4569     43.8233E-03     45.2478E-03
            4372            4569     43.8233E-03     45.2478E-03
            4354            4569     43.8233E-03     45.2478E-03
            4355            4570     41.0183E-03     42.4757E-03
            4374            4570     41.0183E-03     42.4757E-03
            4373            4570     41.0183E-03     42.4757E-03
            4356            4570     41.0183E-03     42.4757E-03
            4356            4571     38.2316E-03     39.7160E-03
            4375            4571     38.2316E-03     39.7160E-03
            4374            4571     38.2316E-03     39.7160E-03
            4357            4571     38.2316E-03     39.7160E-03
            4357            4572     35.4795E-03     36.9644E-03
            4376            4572     35.4795E-03     36.9644E-03
            4358            4572     35.4795E-03     36.9644E-03
            4375            4572     35.4795E-03     36.9644E-03
            4358            4573     32.7636E-03     34.2346E-03
            4377            4573     32.7636E-03     34.2346E-03
            4376            4573     32.7636E-03     34.2346E-03
            4359            4573     32.7636E-03     34.2346E-03
            4378            4574     30.1104E-03     31.5413E-03
            4377            4574     30.1104E-03     31.5413E-03
            4359            4574     30.1104E-03     31.5413E-03
            4360            4574     30.1104E-03     31.5413E-03
            4379            4575     27.5626E-03     28.9244E-03
            4378            4575     27.5626E-03     28.9244E-03
            4360            4575     27.5626E-03     28.9244E-03
            4361            4575     27.5626E-03     28.9244E-03
            4362            4576     25.1875E-03     26.4419E-03
            4380            4576     25.1875E-03     26.4419E-03
            4361            4576     25.1875E-03     26.4419E-03
            4379            4576     25.1875E-03     26.4419E-03
            4380            4577     23.1574E-03     24.2406E-03
            4363            4577     23.1574E-03     24.2406E-03
            4381            4577     23.1574E-03     24.2406E-03
            4362            4577     23.1574E-03     24.2406E-03
            4364            4578     22.2060E-03     22.9508E-03
            4382            4578     22.2060E-03     22.9508E-03
            4381            4578     22.2060E-03     22.9508E-03
            4363            4578     22.2060E-03     22.9508E-03
            4383            4579     70.9510E-03     72.0119E-03
            4365            4579     70.9510E-03     72.0119E-03
            4384            4579     70.9510E-03     72.0119E-03
            4366            4579     70.9510E-03     72.0119E-03
            4385            4580     62.7792E-03     64.2102E-03
            4367            4580     62.7792E-03     64.2102E-03
            4384            4580     62.7792E-03     64.2102E-03
            4366            4580     62.7792E-03     64.2102E-03
            4386            4581     57.4905E-03     58.7818E-03
            4385            4581     57.4905E-03     58.7818E-03
            4368            4581     57.4905E-03     58.7818E-03
            4367            4581     57.4905E-03     58.7818E-03
            4386            4582     53.5973E-03     54.8998E-03
            4369            4582     53.5973E-03     54.8998E-03
            4368            4582     53.5973E-03     54.8998E-03
            4387            4582     53.5973E-03     54.8998E-03
            4387            4583     50.1916E-03     51.5898E-03
            4369            4583     50.1916E-03     51.5898E-03
            4370            4583     50.1916E-03     51.5898E-03
            4388            4583     50.1916E-03     51.5898E-03
            4370            4584     47.1796E-03     48.6792E-03
            4371            4584     47.1796E-03     48.6792E-03
            4389            4584     47.1796E-03     48.6792E-03
            4388            4584     47.1796E-03     48.6792E-03
            4390            4585     44.3273E-03     45.9314E-03
            4371            4585     44.3273E-03     45.9314E-03
            4372            4585     44.3273E-03     45.9314E-03
            4389            4585     44.3273E-03     45.9314E-03
            4372            4586     41.6136E-03     43.2946E-03
            4373            4586     41.6136E-03     43.2946E-03
            4391            4586     41.6136E-03     43.2946E-03
            4390            4586     41.6136E-03     43.2946E-03
            4391            4587     38.9567E-03     40.6969E-03
            4373            4587     38.9567E-03     40.6969E-03
            4374            4587     38.9567E-03     40.6969E-03
            4392            4587     38.9567E-03     40.6969E-03
            4375            4588     36.3694E-03     38.1369E-03
            4374            4588     36.3694E-03     38.1369E-03
            4392            4588     36.3694E-03     38.1369E-03
            4393            4588     36.3694E-03     38.1369E-03
            4394            4589     33.8235E-03     35.5962E-03
            4376            4589     33.8235E-03     35.5962E-03
            4375            4589     33.8235E-03     35.5962E-03
            4393            4589     33.8235E-03     35.5962E-03
            4376            4590     31.3729E-03     33.1151E-03
            4395            4590     31.3729E-03     33.1151E-03
            4394            4590     31.3729E-03     33.1151E-03
            4377            4590     31.3729E-03     33.1151E-03
            4377            4591     29.0133E-03     30.6965E-03
            4395            4591     29.0133E-03     30.6965E-03
            4396            4591     29.0133E-03     30.6965E-03
            4378            4591     29.0133E-03     30.6965E-03
            4397            4592     26.9018E-03     28.4775E-03
            4379            4592     26.9018E-03     28.4775E-03
            4396            4592     26.9018E-03     28.4775E-03
            4378            4592     26.9018E-03     28.4775E-03
            4380            4593     25.0244E-03     26.4597E-03
            4398            4593     25.0244E-03     26.4597E-03
            4379            4593     25.0244E-03     26.4597E-03
            4397            4593     25.0244E-03     26.4597E-03
            4380            4594     24.0043E-03     25.2500E-03
            4399            4594     24.0043E-03     25.2500E-03
            4398            4594     24.0043E-03     25.2500E-03
            4381            4594     24.0043E-03     25.2500E-03
            4399            4595     23.5925E-03     24.9148E-03
            4382            4595     23.5925E-03     24.9148E-03
            4381            4595     23.5925E-03     24.9148E-03
            4400            4595     23.5925E-03     24.9148E-03
            4401            4596     71.6317E-03     72.0836E-03
            4384            4596     71.6317E-03     72.0836E-03
            4402            4596     71.6317E-03     72.0836E-03
            4383            4596     71.6317E-03     72.0836E-03
            4403            4597     65.3499E-03     66.4897E-03
            4402            4597     65.3499E-03     66.4897E-03
            4385            4597     65.3499E-03     66.4897E-03
            4384            4597     65.3499E-03     66.4897E-03
            4404            4598     59.4613E-03     61.0056E-03
            4386            4598     59.4613E-03     61.0056E-03
            4403            4598     59.4613E-03     61.0056E-03
            4385            4598     59.4613E-03     61.0056E-03
            4405            4599     55.2214E-03     56.7782E-03
            4387            4599     55.2214E-03     56.7782E-03
            4386            4599     55.2214E-03     56.7782E-03
            4404            4599     55.2214E-03     56.7782E-03
            4387            4600     51.6299E-03     53.1828E-03
            4406            4600     51.6299E-03     53.1828E-03
            4405            4600     51.6299E-03     53.1828E-03
            4388            4600     51.6299E-03     53.1828E-03
            4406            4601     48.4101E-03     49.9833E-03
            4388            4601     48.4101E-03     49.9833E-03
            4389            4601     48.4101E-03     49.9833E-03
            4407            4601     48.4101E-03     49.9833E-03
            4408            4602     45.4296E-03     47.0080E-03
            4407            4602     45.4296E-03     47.0080E-03
            4390            4602     45.4296E-03     47.0080E-03
            4389            4602     45.4296E-03     47.0080E-03
            4391            4603     42.5618E-03     44.1611E-03
            4408            4603     42.5618E-03     44.1611E-03
            4390            4603     42.5618E-03     44.1611E-03
            4409            4603     42.5618E-03     44.1611E-03
            4410            4604     39.7883E-03     41.3925E-03
            4409            4604     39.7883E-03     41.3925E-03
            4391            4604     39.7883E-03     41.3925E-03
            4392            4604     39.7883E-03     41.3925E-03
            4393            4605     37.0611E-03     38.6720E-03
            4410            4605     37.0611E-03     38.6720E-03
            4392            4605     37.0611E-03     38.6720E-03
            4411            4605     37.0611E-03     38.6720E-03
            4393            4606     34.4015E-03     36.0025E-03
            4411            4606     34.4015E-03     36.0025E-03
            4394            4606     34.4015E-03     36.0025E-03
            4412            4606     34.4015E-03     36.0025E-03
            4394            4607     31.8013E-03     33.3883E-03
            4413            4607     31.8013E-03     33.3883E-03
            4412            4607     31.8013E-03     33.3883E-03
            4395            4607     31.8013E-03     33.3883E-03
            4395            4608     29.3240E-03     30.8792E-03
            4396            4608     29.3240E-03     30.8792E-03
            4414            4608     29.3240E-03     30.8792E-03
            4413            4608     29.3240E-03     30.8792E-03
            4396            4609     26.9969E-03     28.5246E-03
            4397            4609     26.9969E-03     28.5246E-03
            4414            4609     26.9969E-03     28.5246E-03
            4415            4609     26.9969E-03     28.5246E-03
            4397            4610     24.9425E-03     26.4490E-03
            4398            4610     24.9425E-03     26.4490E-03
            4416            4610     24.9425E-03     26.4490E-03
            4415            4610     24.9425E-03     26.4490E-03
            4398            4611     23.3292E-03     24.9798E-03
            4416            4611     23.3292E-03     24.9798E-03
            4399            4611     23.3292E-03     24.9798E-03
            4417            4611     23.3292E-03     24.9798E-03
            4399            4612     20.8877E-03     22.9309E-03
            4400            4612     20.8877E-03     22.9309E-03
            4418            4612     20.8877E-03     22.9309E-03
            4417            4612     20.8877E-03     22.9309E-03
            4420            4613     70.2061E-03     71.5457E-03
            4419            4613     70.2061E-03     71.5457E-03
            4401            4613     70.2061E-03     71.5457E-03
            4402            4613     70.2061E-03     71.5457E-03
            4421            4614     65.8174E-03     67.0827E-03
            4420            4614     65.8174E-03     67.0827E-03
            4402            4614     65.8174E-03     67.0827E-03
            4403            4614     65.8174E-03     67.0827E-03
            4404            4615     60.9875E-03     62.4503E-03
            4403            4615     60.9875E-03     62.4503E-03
            4421            4615     60.9875E-03     62.4503E-03
            4422            4615     60.9875E-03     62.4503E-03
            4423            4616     56.5697E-03     58.2253E-03
            4405            4616     56.5697E-03     58.2253E-03
            4422            4616     56.5697E-03     58.2253E-03
            4404            4616     56.5697E-03     58.2253E-03
            4423            4617     52.9126E-03     54.5434E-03
            4424            4617     52.9126E-03     54.5434E-03
            4405            4617     52.9126E-03     54.5434E-03
            4406            4617     52.9126E-03     54.5434E-03
            4406            4618     49.5687E-03     51.1662E-03
            4424            4618     49.5687E-03     51.1662E-03
            4407            4618     49.5687E-03     51.1662E-03
            4425            4618     49.5687E-03     51.1662E-03
            4426            4619     46.4572E-03     48.0187E-03
            4407            4619     46.4572E-03     48.0187E-03
            4408            4619     46.4572E-03     48.0187E-03
            4425            4619     46.4572E-03     48.0187E-03
            4426            4620     43.4812E-03     45.0023E-03
            4427            4620     43.4812E-03     45.0023E-03
            4408            4620     43.4812E-03     45.0023E-03
            4409            4620     43.4812E-03     45.0023E-03
            4427            4621     40.5837E-03     42.0822E-03
            4428            4621     40.5837E-03     42.0822E-03
            4409            4621     40.5837E-03     42.0822E-03
            4410            4621     40.5837E-03     42.0822E-03
            4410            4622     37.7525E-03     39.2282E-03
            4428            4622     37.7525E-03     39.2282E-03
            4429            4622     37.7525E-03     39.2282E-03
            4411            4622     37.7525E-03     39.2282E-03
            4412            4623     34.9698E-03     36.4369E-03
            4429            4623     34.9698E-03     36.4369E-03
            4430            4623     34.9698E-03     36.4369E-03
            4411            4623     34.9698E-03     36.4369E-03
            4430            4624     32.2507E-03     33.7109E-03
            4431            4624     32.2507E-03     33.7109E-03
            4412            4624     32.2507E-03     33.7109E-03
            4413            4624     32.2507E-03     33.7109E-03
            4414            4625     29.6146E-03     31.0892E-03
            4413            4625     29.6146E-03     31.0892E-03
            4431            4625     29.6146E-03     31.0892E-03
            4432            4625     29.6146E-03     31.0892E-03
            4432            4626     27.0717E-03     28.5720E-03
            4433            4626     27.0717E-03     28.5720E-03
            4415            4626     27.0717E-03     28.5720E-03
            4414            4626     27.0717E-03     28.5720E-03
            4415            4627     24.7170E-03     26.3191E-03
            4416            4627     24.7170E-03     26.3191E-03
            4433            4627     24.7170E-03     26.3191E-03
            4434            4627     24.7170E-03     26.3191E-03
            4416            4628     22.1826E-03     23.9716E-03
            4417            4628     22.1826E-03     23.9716E-03
            4434            4628     22.1826E-03     23.9716E-03
            4435            4628     22.1826E-03     23.9716E-03
            4436            4629     19.1526E-03     20.9477E-03
            4435            4629     19.1526E-03     20.9477E-03
            4418            4629     19.1526E-03     20.9477E-03
            4417            4629     19.1526E-03     20.9477E-03
            4438            4630     68.9080E-03     69.8650E-03
            4437            4630     68.9080E-03     69.8650E-03
            4419            4630     68.9080E-03     69.8650E-03
            4420            4630     68.9080E-03     69.8650E-03
            4421            4631     65.1695E-03     66.6018E-03
            4438            4631     65.1695E-03     66.6018E-03
            4439            4631     65.1695E-03     66.6018E-03
            4420            4631     65.1695E-03     66.6018E-03
            4440            4632     61.3157E-03     62.8591E-03
            4422            4632     61.3157E-03     62.8591E-03
            4439            4632     61.3157E-03     62.8591E-03
            4421            4632     61.3157E-03     62.8591E-03
            4441            4633     57.4565E-03     59.0573E-03
            4422            4633     57.4565E-03     59.0573E-03
            4440            4633     57.4565E-03     59.0573E-03
            4423            4633     57.4565E-03     59.0573E-03
            4424            4634     53.8053E-03     55.4456E-03
            4441            4634     53.8053E-03     55.4456E-03
            4442            4634     53.8053E-03     55.4456E-03
            4423            4634     53.8053E-03     55.4456E-03
            4425            4635     50.4791E-03     52.0479E-03
            4424            4635     50.4791E-03     52.0479E-03
            4442            4635     50.4791E-03     52.0479E-03
            4443            4635     50.4791E-03     52.0479E-03
            4444            4636     47.2982E-03     48.7974E-03
            4426            4636     47.2982E-03     48.7974E-03
            4443            4636     47.2982E-03     48.7974E-03
            4425            4636     47.2982E-03     48.7974E-03
            4445            4637     44.2437E-03     45.6778E-03
            4426            4637     44.2437E-03     45.6778E-03
            4444            4637     44.2437E-03     45.6778E-03
            4427            4637     44.2437E-03     45.6778E-03
            4428            4638     41.2641E-03     42.6445E-03
            4445            4638     41.2641E-03     42.6445E-03
            4427            4638     41.2641E-03     42.6445E-03
            4446            4638     41.2641E-03     42.6445E-03
            4428            4639     38.3411E-03     39.6903E-03
            4446            4639     38.3411E-03     39.6903E-03
            4447            4639     38.3411E-03     39.6903E-03
            4429            4639     38.3411E-03     39.6903E-03
            4447            4640     35.4627E-03     36.7978E-03
            4448            4640     35.4627E-03     36.7978E-03
            4429            4640     35.4627E-03     36.7978E-03
            4430            4640     35.4627E-03     36.7978E-03
            4430            4641     32.6326E-03     33.9825E-03
            4448            4641     32.6326E-03     33.9825E-03
            4449            4641     32.6326E-03     33.9825E-03
            4431            4641     32.6326E-03     33.9825E-03
            4431            4642     29.8342E-03     31.2207E-03
            4450            4642     29.8342E-03     31.2207E-03
            4432            4642     29.8342E-03     31.2207E-03
            4449            4642     29.8342E-03     31.2207E-03
            4451            4643     27.0981E-03     28.5726E-03
            4433            4643     27.0981E-03     28.5726E-03
            4450            4643     27.0981E-03     28.5726E-03
            4432            4643     27.0981E-03     28.5726E-03
            4433            4644     24.3062E-03     25.9027E-03
            4452            4644     24.3062E-03     25.9027E-03
            4451            4644     24.3062E-03     25.9027E-03
            4434            4644     24.3062E-03     25.9027E-03
            4453            4645     21.3368E-03     23.0181E-03
            4435            4645     21.3368E-03     23.0181E-03
            4452            4645     21.3368E-03     23.0181E-03
            4434            4645     21.3368E-03     23.0181E-03
            4453            4646     18.1230E-03     19.9050E-03
            4454            4646     18.1230E-03     19.9050E-03
            4436            4646     18.1230E-03     19.9050E-03
            4435            4646     18.1230E-03     19.9050E-03
            4456            4647     67.2420E-03     68.2564E-03
            4438            4647     67.2420E-03     68.2564E-03
            4437            4647     67.2420E-03     68.2564E-03
            4455            4647     67.2420E-03     68.2564E-03
            4456            4648     64.2338E-03     65.5176E-03
            4439            4648     64.2338E-03     65.5176E-03
            4457            4648     64.2338E-03     65.5176E-03
            4438            4648     64.2338E-03     65.5176E-03
            4439            4649     60.9526E-03     62.4889E-03
            4457            4649     60.9526E-03     62.4889E-03
            4440            4649     60.9526E-03     62.4889E-03
            4458            4649     60.9526E-03     62.4889E-03
            4458            4650     57.6031E-03     59.1952E-03
            4440            4650     57.6031E-03     59.1952E-03
            4441            4650     57.6031E-03     59.1952E-03
            4459            4650     57.6031E-03     59.1952E-03
            4459            4651     54.2632E-03     55.8120E-03
            4441            4651     54.2632E-03     55.8120E-03
            4442            4651     54.2632E-03     55.8120E-03
            4460            4651     54.2632E-03     55.8120E-03
            4460            4652     50.9918E-03     52.4759E-03
            4442            4652     50.9918E-03     52.4759E-03
            4461            4652     50.9918E-03     52.4759E-03
            4443            4652     50.9918E-03     52.4759E-03
            4443            4653     47.8412E-03     49.2267E-03
            4462            4653     47.8412E-03     49.2267E-03
            4444            4653     47.8412E-03     49.2267E-03
            4461            4653     47.8412E-03     49.2267E-03
            4444            4654     44.7534E-03     46.0576E-03
            4445            4654     44.7534E-03     46.0576E-03
            4462            4654     44.7534E-03     46.0576E-03
            4463            4654     44.7534E-03     46.0576E-03
            4445            4655     41.7322E-03     42.9718E-03
            4464            4655     41.7322E-03     42.9718E-03
            4446            4655     41.7322E-03     42.9718E-03
            4463            4655     41.7322E-03     42.9718E-03
            4446            4656     38.7506E-03     39.9515E-03
            4464            4656     38.7506E-03     39.9515E-03
            4447            4656     38.7506E-03     39.9515E-03
            4465            4656     38.7506E-03     39.9515E-03
            4465            4657     35.8085E-03     36.9990E-03
            4466            4657     35.8085E-03     36.9990E-03
            4447            4657     35.8085E-03     36.9990E-03
            4448            4657     35.8085E-03     36.9990E-03
            4467            4658     32.8817E-03     34.0975E-03
            4448            4658     32.8817E-03     34.0975E-03
            4466            4658     32.8817E-03     34.0975E-03
            4449            4658     32.8817E-03     34.0975E-03
            4449            4659     29.9723E-03     31.2578E-03
            4450            4659     29.9723E-03     31.2578E-03
            4468            4659     29.9723E-03     31.2578E-03
            4467            4659     29.9723E-03     31.2578E-03
            4468            4660     27.0214E-03     28.4109E-03
            4469            4660     27.0214E-03     28.4109E-03
            4451            4660     27.0214E-03     28.4109E-03
            4450            4660     27.0214E-03     28.4109E-03
            4470            4661     23.9711E-03     25.4914E-03
            4452            4661     23.9711E-03     25.4914E-03
            4469            4661     23.9711E-03     25.4914E-03
            4451            4661     23.9711E-03     25.4914E-03
            4453            4662     20.7883E-03     22.4202E-03
            4470            4662     20.7883E-03     22.4202E-03
            4452            4662     20.7883E-03     22.4202E-03
            4471            4662     20.7883E-03     22.4202E-03
            4453            4663     17.4597E-03     19.1590E-03
            4454            4663     17.4597E-03     19.1590E-03
            4471            4663     17.4597E-03     19.1590E-03
            4472            4663     17.4597E-03     19.1590E-03
            4456            4664     65.5405E-03     66.4327E-03
            4473            4664     65.5405E-03     66.4327E-03
            4474            4664     65.5405E-03     66.4327E-03
            4455            4664     65.5405E-03     66.4327E-03
            4474            4665     62.9244E-03     64.1959E-03
            4475            4665     62.9244E-03     64.1959E-03
            4456            4665     62.9244E-03     64.1959E-03
            4457            4665     62.9244E-03     64.1959E-03
            4457            4666     60.1747E-03     61.6219E-03
            4476            4666     60.1747E-03     61.6219E-03
            4458            4666     60.1747E-03     61.6219E-03
            4475            4666     60.1747E-03     61.6219E-03
            4459            4667     57.2209E-03     58.7168E-03
            4458            4667     57.2209E-03     58.7168E-03
            4477            4667     57.2209E-03     58.7168E-03
            4476            4667     57.2209E-03     58.7168E-03
            4478            4668     54.1755E-03     55.5930E-03
            4459            4668     54.1755E-03     55.5930E-03
            4460            4668     54.1755E-03     55.5930E-03
            4477            4668     54.1755E-03     55.5930E-03
            4461            4669     51.0811E-03     52.3934E-03
            4478            4669     51.0811E-03     52.3934E-03
            4479            4669     51.0811E-03     52.3934E-03
            4460            4669     51.0811E-03     52.3934E-03
            4480            4670     47.9909E-03     49.2051E-03
            4461            4670     47.9909E-03     49.2051E-03
            4479            4670     47.9909E-03     49.2051E-03
            4462            4670     47.9909E-03     49.2051E-03
            4462            4671     44.9402E-03     46.0624E-03
            4481            4671     44.9402E-03     46.0624E-03
            4480            4671     44.9402E-03     46.0624E-03
            4463            4671     44.9402E-03     46.0624E-03
            4463            4672     41.9127E-03     42.9738E-03
            4481            4672     41.9127E-03     42.9738E-03
            4482            4672     41.9127E-03     42.9738E-03
            4464            4672     41.9127E-03     42.9738E-03
            4483            4673     38.9218E-03     39.9425E-03
            4482            4673     38.9218E-03     39.9425E-03
            4465            4673     38.9218E-03     39.9425E-03
            4464            4673     38.9218E-03     39.9425E-03
            4466            4674     35.9448E-03     36.9608E-03
            4484            4674     35.9448E-03     36.9608E-03
            4483            4674     35.9448E-03     36.9608E-03
            4465            4674     35.9448E-03     36.9608E-03
            4466            4675     32.9797E-03     34.0241E-03
            4485            4675     32.9797E-03     34.0241E-03
            4484            4675     32.9797E-03     34.0241E-03
            4467            4675     32.9797E-03     34.0241E-03
            4467            4676     29.9866E-03     31.1182E-03
            4485            4676     29.9866E-03     31.1182E-03
            4486            4676     29.9866E-03     31.1182E-03
            4468            4676     29.9866E-03     31.1182E-03
            4487            4677     26.9251E-03     28.1937E-03
            4468            4677     26.9251E-03     28.1937E-03
            4486            4677     26.9251E-03     28.1937E-03
            4469            4677     26.9251E-03     28.1937E-03
            4469            4678     23.7518E-03     25.1625E-03
            4487            4678     23.7518E-03     25.1625E-03
            4470            4678     23.7518E-03     25.1625E-03
            4488            4678     23.7518E-03     25.1625E-03
            4489            4679     20.4214E-03     22.0023E-03
            4470            4679     20.4214E-03     22.0023E-03
            4471            4679     20.4214E-03     22.0023E-03
            4488            4679     20.4214E-03     22.0023E-03
            4490            4680     17.0967E-03     18.7008E-03
            4471            4680     17.0967E-03     18.7008E-03
            4489            4680     17.0967E-03     18.7008E-03
            4472            4680     17.0967E-03     18.7008E-03
            4473            4681     63.6536E-03     64.4289E-03
            4491            4681     63.6536E-03     64.4289E-03
            4492            4681     63.6536E-03     64.4289E-03
            4474            4681     63.6536E-03     64.4289E-03
            4492            4682     61.3911E-03     62.5971E-03
            4475            4682     61.3911E-03     62.5971E-03
            4474            4682     61.3911E-03     62.5971E-03
            4493            4682     61.3911E-03     62.5971E-03
            4476            4683     58.9941E-03     60.3427E-03
            4493            4683     58.9941E-03     60.3427E-03
            4475            4683     58.9941E-03     60.3427E-03
            4494            4683     58.9941E-03     60.3427E-03
            4477            4684     56.4148E-03     57.6880E-03
            4476            4684     56.4148E-03     57.6880E-03
            4494            4684     56.4148E-03     57.6880E-03
            4495            4684     56.4148E-03     57.6880E-03
            4478            4685     53.6041E-03     54.7881E-03
            4477            4685     53.6041E-03     54.7881E-03
            4496            4685     53.6041E-03     54.7881E-03
            4495            4685     53.6041E-03     54.7881E-03
            4497            4686     50.6967E-03     51.7628E-03
            4478            4686     50.6967E-03     51.7628E-03
            4496            4686     50.6967E-03     51.7628E-03
            4479            4686     50.6967E-03     51.7628E-03
            4479            4687     47.7314E-03     48.6956E-03
            4498            4687     47.7314E-03     48.6956E-03
            4497            4687     47.7314E-03     48.6956E-03
            4480            4687     47.7314E-03     48.6956E-03
            4480            4688     44.7457E-03     45.6406E-03
            4498            4688     44.7457E-03     45.6406E-03
            4499            4688     44.7457E-03     45.6406E-03
            4481            4688     44.7457E-03     45.6406E-03
            4499            4689     41.7742E-03     42.6125E-03
            4482            4689     41.7742E-03     42.6125E-03
            4500            4689     41.7742E-03     42.6125E-03
            4481            4689     41.7742E-03     42.6125E-03
            4483            4690     38.8070E-03     39.6195E-03
            4500            4690     38.8070E-03     39.6195E-03
            4482            4690     38.8070E-03     39.6195E-03
            4501            4690     38.8070E-03     39.6195E-03
            4484            4691     35.8547E-03     36.6594E-03
            4483            4691     35.8547E-03     36.6594E-03
            4501            4691     35.8547E-03     36.6594E-03
            4502            4691     35.8547E-03     36.6594E-03
            4485            4692     32.8937E-03     33.7318E-03
            4484            4692     32.8937E-03     33.7318E-03
            4503            4692     32.8937E-03     33.7318E-03
            4502            4692     32.8937E-03     33.7318E-03
            4503            4693     29.9015E-03     30.8097E-03
            4504            4693     29.9015E-03     30.8097E-03
            4486            4693     29.9015E-03     30.8097E-03
            4485            4693     29.9015E-03     30.8097E-03
            4504            4694     26.8354E-03     27.9120E-03
            4487            4694     26.8354E-03     27.9120E-03
            4505            4694     26.8354E-03     27.9120E-03
            4486            4694     26.8354E-03     27.9120E-03
            4505            4695     23.6273E-03     24.9435E-03
            4488            4695     23.6273E-03     24.9435E-03
            4506            4695     23.6273E-03     24.9435E-03
            4487            4695     23.6273E-03     24.9435E-03
            4506            4696     20.3026E-03     21.7460E-03
            4489            4696     20.3026E-03     21.7460E-03
            4488            4696     20.3026E-03     21.7460E-03
            4507            4696     20.3026E-03     21.7460E-03
            4489            4697     16.9241E-03     18.5487E-03
            4490            4697     16.9241E-03     18.5487E-03
            4507            4697     16.9241E-03     18.5487E-03
            4508            4697     16.9241E-03     18.5487E-03
            4509            4698     61.5028E-03     62.2982E-03
            4491            4698     61.5028E-03     62.2982E-03
            4510            4698     61.5028E-03     62.2982E-03
            4492            4698     61.5028E-03     62.2982E-03
            4510            4699     59.5660E-03     60.6093E-03
            4493            4699     59.5660E-03     60.6093E-03
            4492            4699     59.5660E-03     60.6093E-03
            4511            4699     59.5660E-03     60.6093E-03
            4493            4700     57.5278E-03     58.5364E-03
            4511            4700     57.5278E-03     58.5364E-03
            4494            4700     57.5278E-03     58.5364E-03
            4512            4700     57.5278E-03     58.5364E-03
            4494            4701     55.1549E-03     56.0902E-03
            4513            4701     55.1549E-03     56.0902E-03
            4512            4701     55.1549E-03     56.0902E-03
            4495            4701     55.1549E-03     56.0902E-03
            4514            4702     52.5964E-03     53.4030E-03
            4495            4702     52.5964E-03     53.4030E-03
            4496            4702     52.5964E-03     53.4030E-03
            4513            4702     52.5964E-03     53.4030E-03
            4515            4703     49.8654E-03     50.5816E-03
            4497            4703     49.8654E-03     50.5816E-03
            4514            4703     49.8654E-03     50.5816E-03
            4496            4703     49.8654E-03     50.5816E-03
            4516            4704     47.0434E-03     47.7028E-03
            4498            4704     47.0434E-03     47.7028E-03
            4497            4704     47.0434E-03     47.7028E-03
            4515            4704     47.0434E-03     47.7028E-03
            4499            4705     44.1826E-03     44.7966E-03
            4517            4705     44.1826E-03     44.7966E-03
            4516            4705     44.1826E-03     44.7966E-03
            4498            4705     44.1826E-03     44.7966E-03
            4517            4706     41.2967E-03     41.8918E-03
            4499            4706     41.2967E-03     41.8918E-03
            4500            4706     41.2967E-03     41.8918E-03
            4518            4706     41.2967E-03     41.8918E-03
            4500            4707     38.4151E-03     38.9944E-03
            4519            4707     38.4151E-03     38.9944E-03
            4501            4707     38.4151E-03     38.9944E-03
            4518            4707     38.4151E-03     38.9944E-03
            4501            4708     35.5275E-03     36.1095E-03
            4502            4708     35.5275E-03     36.1095E-03
            4520            4708     35.5275E-03     36.1095E-03
            4519            4708     35.5275E-03     36.1095E-03
            4521            4709     32.6365E-03     33.2326E-03
            4503            4709     32.6365E-03     33.2326E-03
            4520            4709     32.6365E-03     33.2326E-03
            4502            4709     32.6365E-03     33.2326E-03
            4521            4710     29.7232E-03     30.3755E-03
            4504            4710     29.7232E-03     30.3755E-03
            4503            4710     29.7232E-03     30.3755E-03
            4522            4710     29.7232E-03     30.3755E-03
            4523            4711     26.7511E-03     27.5145E-03
            4504            4711     26.7511E-03     27.5145E-03
            4522            4711     26.7511E-03     27.5145E-03
            4505            4711     26.7511E-03     27.5145E-03
            4506            4712     23.6792E-03     24.7533E-03
            4523            4712     23.6792E-03     24.7533E-03
            4524            4712     23.6792E-03     24.7533E-03
            4505            4712     23.6792E-03     24.7533E-03
            4525            4713     20.3996E-03     21.8907E-03
            4524            4713     20.3996E-03     21.8907E-03
            4506            4713     20.3996E-03     21.8907E-03
            4507            4713     20.3996E-03     21.8907E-03
            4507            4714     17.1499E-03     18.5812E-03
            4508            4714     17.1499E-03     18.5812E-03
            4525            4714     17.1499E-03     18.5812E-03
            4526            4714     17.1499E-03     18.5812E-03
            4527            4715     59.1483E-03     59.4054E-03
            4509            4715     59.1483E-03     59.4054E-03
            4510            4715     59.1483E-03     59.4054E-03
            4528            4715     59.1483E-03     59.4054E-03
            4528            4716     57.5109E-03     57.9857E-03
            4510            4716     57.5109E-03     57.9857E-03
            4511            4716     57.5109E-03     57.9857E-03
            4529            4716     57.5109E-03     57.9857E-03
            4530            4717     55.6467E-03     56.0790E-03
            4529            4717     55.6467E-03     56.0790E-03
            4512            4717     55.6467E-03     56.0790E-03
            4511            4717     55.6467E-03     56.0790E-03
            4512            4718     53.5257E-03     53.8612E-03
            4513            4718     53.5257E-03     53.8612E-03
            4531            4718     53.5257E-03     53.8612E-03
            4530            4718     53.5257E-03     53.8612E-03
            4532            4719     51.1588E-03     51.4472E-03
            4513            4719     51.1588E-03     51.4472E-03
            4531            4719     51.1588E-03     51.4472E-03
            4514            4719     51.1588E-03     51.4472E-03
            4514            4720     48.6201E-03     48.9081E-03
            4533            4720     48.6201E-03     48.9081E-03
            4532            4720     48.6201E-03     48.9081E-03
            4515            4720     48.6201E-03     48.9081E-03
            4533            4721     45.9821E-03     46.2787E-03
            4516            4721     45.9821E-03     46.2787E-03
            4515            4721     45.9821E-03     46.2787E-03
            4534            4721     45.9821E-03     46.2787E-03
            4534            4722     43.2721E-03     43.5950E-03
            4535            4722     43.2721E-03     43.5950E-03
            4516            4722     43.2721E-03     43.5950E-03
            4517            4722     43.2721E-03     43.5950E-03
            4535            4723     40.5344E-03     40.8737E-03
            4518            4723     40.5344E-03     40.8737E-03
            4536            4723     40.5344E-03     40.8737E-03
            4517            4723     40.5344E-03     40.8737E-03
            4536            4724     37.7714E-03     38.1297E-03
            4537            4724     37.7714E-03     38.1297E-03
            4518            4724     37.7714E-03     38.1297E-03
            4519            4724     37.7714E-03     38.1297E-03
            4537            4725     35.0066E-03     35.3715E-03
            4520            4725     35.0066E-03     35.3715E-03
            4519            4725     35.0066E-03     35.3715E-03
            4538            4725     35.0066E-03     35.3715E-03
            4521            4726     32.2338E-03     32.6032E-03
            4520            4726     32.2338E-03     32.6032E-03
            4539            4726     32.2338E-03     32.6032E-03
            4538            4726     32.2338E-03     32.6032E-03
            4521            4727     29.4630E-03     29.8381E-03
            4540            4727     29.4630E-03     29.8381E-03
            4539            4727     29.4630E-03     29.8381E-03
            4522            4727     29.4630E-03     29.8381E-03
            4541            4728     26.6849E-03     27.0979E-03
            4522            4728     26.6849E-03     27.0979E-03
            4540            4728     26.6849E-03     27.0979E-03
            4523            4728     26.6849E-03     27.0979E-03
            4524            4729     23.8857E-03     24.4434E-03
            4542            4729     23.8857E-03     24.4434E-03
            4523            4729     23.8857E-03     24.4434E-03
            4541            4729     23.8857E-03     24.4434E-03
            4542            4730     20.9769E-03     22.1331E-03
            4543            4730     20.9769E-03     22.1331E-03
            4525            4730     20.9769E-03     22.1331E-03
            4524            4730     20.9769E-03     22.1331E-03
            4526            4731     17.7291E-03     19.6154E-03
            4543            4731     17.7291E-03     19.6154E-03
            4525            4731     17.7291E-03     19.6154E-03
            4544            4731     17.7291E-03     19.6154E-03
            4528            4732     56.4183E-03     55.5161E-03
            4527            4732     56.4183E-03     55.5161E-03
            4545            4732     56.4183E-03     55.5161E-03
            4546            4732     56.4183E-03     55.5161E-03
            4528            4733     55.1313E-03     54.4765E-03
            4547            4733     55.1313E-03     54.4765E-03
            4529            4733     55.1313E-03     54.4765E-03
            4546            4733     55.1313E-03     54.4765E-03
            4547            4734     53.4562E-03     52.8446E-03
            4529            4734     53.4562E-03     52.8446E-03
            4530            4734     53.4562E-03     52.8446E-03
            4548            4734     53.4562E-03     52.8446E-03
            4549            4735     51.5242E-03     51.0415E-03
            4548            4735     51.5242E-03     51.0415E-03
            4531            4735     51.5242E-03     51.0415E-03
            4530            4735     51.5242E-03     51.0415E-03
            4532            4736     49.3562E-03     49.0222E-03
            4549            4736     49.3562E-03     49.0222E-03
            4531            4736     49.3562E-03     49.0222E-03
            4550            4736     49.3562E-03     49.0222E-03
            4550            4737     47.0473E-03     46.8601E-03
            4533            4737     47.0473E-03     46.8601E-03
            4551            4737     47.0473E-03     46.8601E-03
            4532            4737     47.0473E-03     46.8601E-03
            4533            4738     44.6213E-03     44.5606E-03
            4552            4738     44.6213E-03     44.5606E-03
            4534            4738     44.6213E-03     44.5606E-03
            4551            4738     44.6213E-03     44.5606E-03
            4552            4739     42.1224E-03     42.1621E-03
            4535            4739     42.1224E-03     42.1621E-03
            4553            4739     42.1224E-03     42.1621E-03
            4534            4739     42.1224E-03     42.1621E-03
            4536            4740     39.5630E-03     39.6819E-03
            4553            4740     39.5630E-03     39.6819E-03
            4554            4740     39.5630E-03     39.6819E-03
            4535            4740     39.5630E-03     39.6819E-03
            4555            4741     36.9744E-03     37.1426E-03
            4536            4741     36.9744E-03     37.1426E-03
            4554            4741     36.9744E-03     37.1426E-03
            4537            4741     36.9744E-03     37.1426E-03
            4555            4742     34.3596E-03     34.5564E-03
            4537            4742     34.3596E-03     34.5564E-03
            4556            4742     34.3596E-03     34.5564E-03
            4538            4742     34.3596E-03     34.5564E-03
            4539            4743     31.7522E-03     31.9442E-03
            4557            4743     31.7522E-03     31.9442E-03
            4556            4743     31.7522E-03     31.9442E-03
            4538            4743     31.7522E-03     31.9442E-03
            4558            4744     29.1535E-03     29.3123E-03
            4539            4744     29.1535E-03     29.3123E-03
            4557            4744     29.1535E-03     29.3123E-03
            4540            4744     29.1535E-03     29.3123E-03
            4540            4745     26.6334E-03     26.7211E-03
            4559            4745     26.6334E-03     26.7211E-03
            4558            4745     26.6334E-03     26.7211E-03
            4541            4745     26.6334E-03     26.7211E-03
            4560            4746     24.1759E-03     24.1823E-03
            4542            4746     24.1759E-03     24.1823E-03
            4541            4746     24.1759E-03     24.1823E-03
            4559            4746     24.1759E-03     24.1823E-03
            4561            4747     21.9826E-03     22.0462E-03
            4560            4747     21.9826E-03     22.0462E-03
            4542            4747     21.9826E-03     22.0462E-03
            4543            4747     21.9826E-03     22.0462E-03
            4561            4748     19.5571E-03     20.4813E-03
            4544            4748     19.5571E-03     20.4813E-03
            4562            4748     19.5571E-03     20.4813E-03
            4543            4748     19.5571E-03     20.4813E-03
            4564            4749     53.8743E-03     54.9152E-03
            4546            4749     53.8743E-03     54.9152E-03
            4545            4749     53.8743E-03     54.9152E-03
            4563            4749     53.8743E-03     54.9152E-03
            4547            4750     49.5130E-03     49.5821E-03
            4565            4750     49.5130E-03     49.5821E-03
            4546            4750     49.5130E-03     49.5821E-03
            4564            4750     49.5130E-03     49.5821E-03
            4547            4751     46.6513E-03     46.6468E-03
            4548            4751     46.6513E-03     46.6468E-03
            4565            4751     46.6513E-03     46.6468E-03
            4566            4751     46.6513E-03     46.6468E-03
            4567            4752     43.9994E-03     44.1602E-03
            4549            4752     43.9994E-03     44.1602E-03
            4566            4752     43.9994E-03     44.1602E-03
            4548            4752     43.9994E-03     44.1602E-03
            4567            4753     41.6303E-03     41.9276E-03
            4549            4753     41.6303E-03     41.9276E-03
            4568            4753     41.6303E-03     41.9276E-03
            4550            4753     41.6303E-03     41.9276E-03
            4550            4754     39.3134E-03     39.8009E-03
            4569            4754     39.3134E-03     39.8009E-03
            4568            4754     39.3134E-03     39.8009E-03
            4551            4754     39.3134E-03     39.8009E-03
            4552            4755     37.0854E-03     37.6972E-03
            4569            4755     37.0854E-03     37.6972E-03
            4570            4755     37.0854E-03     37.6972E-03
            4551            4755     37.0854E-03     37.6972E-03
            4552            4756     34.8676E-03     35.6046E-03
            4570            4756     34.8676E-03     35.6046E-03
            4571            4756     34.8676E-03     35.6046E-03
            4553            4756     34.8676E-03     35.6046E-03
            4553            4757     32.6825E-03     33.4936E-03
            4572            4757     32.6825E-03     33.4936E-03
            4554            4757     32.6825E-03     33.4936E-03
            4571            4757     32.6825E-03     33.4936E-03
            4572            4758     30.5057E-03     31.3753E-03
            4573            4758     30.5057E-03     31.3753E-03
            4554            4758     30.5057E-03     31.3753E-03
            4555            4758     30.5057E-03     31.3753E-03
            4573            4759     28.3568E-03     29.2461E-03
            4556            4759     28.3568E-03     29.2461E-03
            4555            4759     28.3568E-03     29.2461E-03
            4574            4759     28.3568E-03     29.2461E-03
            4557            4760     26.2468E-03     27.1279E-03
            4575            4760     26.2468E-03     27.1279E-03
            4574            4760     26.2468E-03     27.1279E-03
            4556            4760     26.2468E-03     27.1279E-03
            4575            4761     24.2069E-03     25.0366E-03
            4576            4761     24.2069E-03     25.0366E-03
            4558            4761     24.2069E-03     25.0366E-03
            4557            4761     24.2069E-03     25.0366E-03
            4558            4762     22.2998E-03     23.0286E-03
            4576            4762     22.2998E-03     23.0286E-03
            4577            4762     22.2998E-03     23.0286E-03
            4559            4762     22.2998E-03     23.0286E-03
            4560            4763     20.6130E-03     21.1675E-03
            4559            4763     20.6130E-03     21.1675E-03
            4577            4763     20.6130E-03     21.1675E-03
            4578            4763     20.6130E-03     21.1675E-03
            4579            4764     19.3669E-03     19.6919E-03
            4561            4764     19.3669E-03     19.6919E-03
            4578            4764     19.3669E-03     19.6919E-03
            4560            4764     19.3669E-03     19.6919E-03
            4579            4765     19.2605E-03     19.3331E-03
            4562            4765     19.2605E-03     19.3331E-03
            4580            4765     19.2605E-03     19.3331E-03
            4561            4765     19.2605E-03     19.3331E-03
            4582            4766     54.2698E-03     55.4729E-03
            4564            4766     54.2698E-03     55.4729E-03
            4563            4766     54.2698E-03     55.4729E-03
            4581            4766     54.2698E-03     55.4729E-03
            4582            4767     46.4342E-03     47.9285E-03
            4565            4767     46.4342E-03     47.9285E-03
            4564            4767     46.4342E-03     47.9285E-03
            4583            4767     46.4342E-03     47.9285E-03
            4565            4768     41.5911E-03     42.9172E-03
            4566            4768     41.5911E-03     42.9172E-03
            4584            4768     41.5911E-03     42.9172E-03
            4583            4768     41.5911E-03     42.9172E-03
            4566            4769     38.1577E-03     39.4399E-03
            4585            4769     38.1577E-03     39.4399E-03
            4567            4769     38.1577E-03     39.4399E-03
            4584            4769     38.1577E-03     39.4399E-03
            4585            4770     35.2797E-03     36.6017E-03
            4568            4770     35.2797E-03     36.6017E-03
            4567            4770     35.2797E-03     36.6017E-03
            4586            4770     35.2797E-03     36.6017E-03
            4587            4771     32.8382E-03     34.2127E-03
            4568            4771     32.8382E-03     34.2127E-03
            4586            4771     32.8382E-03     34.2127E-03
            4569            4771     32.8382E-03     34.2127E-03
            4570            4772     30.6054E-03     32.0470E-03
            4569            4772     30.6054E-03     32.0470E-03
            4587            4772     30.6054E-03     32.0470E-03
            4588            4772     30.6054E-03     32.0470E-03
            4571            4773     28.5462E-03     30.0406E-03
            4588            4773     28.5462E-03     30.0406E-03
            4570            4773     28.5462E-03     30.0406E-03
            4589            4773     28.5462E-03     30.0406E-03
            4590            4774     26.5774E-03     28.1144E-03
            4589            4774     26.5774E-03     28.1144E-03
            4571            4774     26.5774E-03     28.1144E-03
            4572            4774     26.5774E-03     28.1144E-03
            4573            4775     24.6982E-03     26.2579E-03
            4590            4775     24.6982E-03     26.2579E-03
            4572            4775     24.6982E-03     26.2579E-03
            4591            4775     24.6982E-03     26.2579E-03
            4592            4776     22.8793E-03     24.4437E-03
            4591            4776     22.8793E-03     24.4437E-03
            4574            4776     22.8793E-03     24.4437E-03
            4573            4776     22.8793E-03     24.4437E-03
            4575            4777     21.1550E-03     22.7009E-03
            4574            4777     21.1550E-03     22.7009E-03
            4592            4777     21.1550E-03     22.7009E-03
            4593            4777     21.1550E-03     22.7009E-03
            4575            4778     19.5217E-03     21.0273E-03
            4594            4778     19.5217E-03     21.0273E-03
            4593            4778     19.5217E-03     21.0273E-03
            4576            4778     19.5217E-03     21.0273E-03
            4594            4779     18.0938E-03     19.5262E-03
            4595            4779     18.0938E-03     19.5262E-03
            4576            4779     18.0938E-03     19.5262E-03
            4577            4779     18.0938E-03     19.5262E-03
            4577            4780     16.8709E-03     18.2097E-03
            4595            4780     16.8709E-03     18.2097E-03
            4578            4780     16.8709E-03     18.2097E-03
            4596            4780     16.8709E-03     18.2097E-03
            4579            4781     16.3430E-03     17.5312E-03
            4578            4781     16.3430E-03     17.5312E-03
            4597            4781     16.3430E-03     17.5312E-03
            4596            4781     16.3430E-03     17.5312E-03
            4598            4782     16.5542E-03     17.6846E-03
            4580            4782     16.5542E-03     17.6846E-03
            4579            4782     16.5542E-03     17.6846E-03
            4597            4782     16.5542E-03     17.6846E-03
            4600            4783     54.3733E-03     54.6791E-03
            4581            4783     54.3733E-03     54.6791E-03
            4599            4783     54.3733E-03     54.6791E-03
            4582            4783     54.3733E-03     54.6791E-03
            4583            4784     48.3155E-03     49.2407E-03
            4600            4784     48.3155E-03     49.2407E-03
            4601            4784     48.3155E-03     49.2407E-03
            4582            4784     48.3155E-03     49.2407E-03
            4584            4785     42.9184E-03     44.2253E-03
            4602            4785     42.9184E-03     44.2253E-03
            4601            4785     42.9184E-03     44.2253E-03
            4583            4785     42.9184E-03     44.2253E-03
            4602            4786     39.2036E-03     40.5412E-03
            4603            4786     39.2036E-03     40.5412E-03
            4584            4786     39.2036E-03     40.5412E-03
            4585            4786     39.2036E-03     40.5412E-03
            4585            4787     36.1984E-03     37.5400E-03
            4586            4787     36.1984E-03     37.5400E-03
            4603            4787     36.1984E-03     37.5400E-03
            4604            4787     36.1984E-03     37.5400E-03
            4604            4788     33.6185E-03     34.9823E-03
            4587            4788     33.6185E-03     34.9823E-03
            4586            4788     33.6185E-03     34.9823E-03
            4605            4788     33.6185E-03     34.9823E-03
            4588            4789     31.3197E-03     32.6911E-03
            4605            4789     31.3197E-03     32.6911E-03
            4606            4789     31.3197E-03     32.6911E-03
            4587            4789     31.3197E-03     32.6911E-03
            4589            4790     29.1726E-03     30.5622E-03
            4607            4790     29.1726E-03     30.5622E-03
            4588            4790     29.1726E-03     30.5622E-03
            4606            4790     29.1726E-03     30.5622E-03
            4589            4791     27.1436E-03     28.5400E-03
            4590            4791     27.1436E-03     28.5400E-03
            4607            4791     27.1436E-03     28.5400E-03
            4608            4791     27.1436E-03     28.5400E-03
            4608            4792     25.1834E-03     26.5852E-03
            4609            4792     25.1834E-03     26.5852E-03
            4591            4792     25.1834E-03     26.5852E-03
            4590            4792     25.1834E-03     26.5852E-03
            4610            4793     23.2997E-03     24.6956E-03
            4592            4793     23.2997E-03     24.6956E-03
            4591            4793     23.2997E-03     24.6956E-03
            4609            4793     23.2997E-03     24.6956E-03
            4611            4794     21.4851E-03     22.8669E-03
            4610            4794     21.4851E-03     22.8669E-03
            4592            4794     21.4851E-03     22.8669E-03
            4593            4794     21.4851E-03     22.8669E-03
            4611            4795     19.7860E-03     21.1398E-03
            4612            4795     19.7860E-03     21.1398E-03
            4594            4795     19.7860E-03     21.1398E-03
            4593            4795     19.7860E-03     21.1398E-03
            4594            4796     18.2339E-03     19.5511E-03
            4612            4796     18.2339E-03     19.5511E-03
            4613            4796     18.2339E-03     19.5511E-03
            4595            4796     18.2339E-03     19.5511E-03
            4614            4797     16.9304E-03     18.1966E-03
            4613            4797     16.9304E-03     18.1966E-03
            4596            4797     16.9304E-03     18.1966E-03
            4595            4797     16.9304E-03     18.1966E-03
            4615            4798     16.0889E-03     17.3467E-03
            4597            4798     16.0889E-03     17.3467E-03
            4614            4798     16.0889E-03     17.3467E-03
            4596            4798     16.0889E-03     17.3467E-03
            4615            4799     14.8196E-03     16.1775E-03
            4597            4799     14.8196E-03     16.1775E-03
            4598            4799     14.8196E-03     16.1775E-03
            4616            4799     14.8196E-03     16.1775E-03
            4617            4800     52.5496E-03     53.5687E-03
            4599            4800     52.5496E-03     53.5687E-03
            4600            4800     52.5496E-03     53.5687E-03
            4618            4800     52.5496E-03     53.5687E-03
            4619            4801     48.3198E-03     49.2074E-03
            4618            4801     48.3198E-03     49.2074E-03
            4600            4801     48.3198E-03     49.2074E-03
            4601            4801     48.3198E-03     49.2074E-03
            4601            4802     43.9147E-03     45.0013E-03
            4620            4802     43.9147E-03     45.0013E-03
            4602            4802     43.9147E-03     45.0013E-03
            4619            4802     43.9147E-03     45.0013E-03
            4602            4803     40.0838E-03     41.3725E-03
            4620            4803     40.0838E-03     41.3725E-03
            4621            4803     40.0838E-03     41.3725E-03
            4603            4803     40.0838E-03     41.3725E-03
            4622            4804     37.0634E-03     38.3721E-03
            4604            4804     37.0634E-03     38.3721E-03
            4621            4804     37.0634E-03     38.3721E-03
            4603            4804     37.0634E-03     38.3721E-03
            4604            4805     34.4185E-03     35.7297E-03
            4623            4805     34.4185E-03     35.7297E-03
            4622            4805     34.4185E-03     35.7297E-03
            4605            4805     34.4185E-03     35.7297E-03
            4605            4806     32.0478E-03     33.3502E-03
            4624            4806     32.0478E-03     33.3502E-03
            4606            4806     32.0478E-03     33.3502E-03
            4623            4806     32.0478E-03     33.3502E-03
            4606            4807     29.8416E-03     31.1267E-03
            4607            4807     29.8416E-03     31.1267E-03
            4625            4807     29.8416E-03     31.1267E-03
            4624            4807     29.8416E-03     31.1267E-03
            4607            4808     27.7391E-03     29.0130E-03
            4608            4808     27.7391E-03     29.0130E-03
            4625            4808     27.7391E-03     29.0130E-03
            4626            4808     27.7391E-03     29.0130E-03
            4608            4809     25.7152E-03     26.9757E-03
            4627            4809     25.7152E-03     26.9757E-03
            4626            4809     25.7152E-03     26.9757E-03
            4609            4809     25.7152E-03     26.9757E-03
            4628            4810     23.7527E-03     25.0036E-03
            4610            4810     23.7527E-03     25.0036E-03
            4609            4810     23.7527E-03     25.0036E-03
            4627            4810     23.7527E-03     25.0036E-03
            4629            4811     21.8597E-03     23.1006E-03
            4628            4811     21.8597E-03     23.1006E-03
            4610            4811     21.8597E-03     23.1006E-03
            4611            4811     21.8597E-03     23.1006E-03
            4630            4812     20.0596E-03     21.2907E-03
            4629            4812     20.0596E-03     21.2907E-03
            4612            4812     20.0596E-03     21.2907E-03
            4611            4812     20.0596E-03     21.2907E-03
            4630            4813     18.3640E-03     19.5876E-03
            4612            4813     18.3640E-03     19.5876E-03
            4631            4813     18.3640E-03     19.5876E-03
            4613            4813     18.3640E-03     19.5876E-03
            4614            4814     16.8853E-03     18.1118E-03
            4631            4814     16.8853E-03     18.1118E-03
            4632            4814     16.8853E-03     18.1118E-03
            4613            4814     16.8853E-03     18.1118E-03
            4633            4815     15.3659E-03     16.6329E-03
            4615            4815     15.3659E-03     16.6329E-03
            4614            4815     15.3659E-03     16.6329E-03
            4632            4815     15.3659E-03     16.6329E-03
            4634            4816     13.5605E-03     14.8027E-03
            4633            4816     13.5605E-03     14.8027E-03
            4615            4816     13.5605E-03     14.8027E-03
            4616            4816     13.5605E-03     14.8027E-03
            4635            4817     50.8901E-03     51.5582E-03
            4618            4817     50.8901E-03     51.5582E-03
            4617            4817     50.8901E-03     51.5582E-03
            4636            4817     50.8901E-03     51.5582E-03
            4618            4818     47.3257E-03     48.3298E-03
            4637            4818     47.3257E-03     48.3298E-03
            4636            4818     47.3257E-03     48.3298E-03
            4619            4818     47.3257E-03     48.3298E-03
            4619            4819     43.8981E-03     44.9695E-03
            4637            4819     43.8981E-03     44.9695E-03
            4620            4819     43.8981E-03     44.9695E-03
            4638            4819     43.8981E-03     44.9695E-03
            4621            4820     40.6243E-03     41.7878E-03
            4639            4820     40.6243E-03     41.7878E-03
            4620            4820     40.6243E-03     41.7878E-03
            4638            4820     40.6243E-03     41.7878E-03
            4639            4821     37.6708E-03     38.9165E-03
            4621            4821     37.6708E-03     38.9165E-03
            4622            4821     37.6708E-03     38.9165E-03
            4640            4821     37.6708E-03     38.9165E-03
            4640            4822     35.0946E-03     36.3238E-03
            4623            4822     35.0946E-03     36.3238E-03
            4622            4822     35.0946E-03     36.3238E-03
            4641            4822     35.0946E-03     36.3238E-03
            4642            4823     32.7023E-03     33.9100E-03
            4623            4823     32.7023E-03     33.9100E-03
            4624            4823     32.7023E-03     33.9100E-03
            4641            4823     32.7023E-03     33.9100E-03
            4625            4824     30.4631E-03     31.6376E-03
            4624            4824     30.4631E-03     31.6376E-03
            4643            4824     30.4631E-03     31.6376E-03
            4642            4824     30.4631E-03     31.6376E-03
            4644            4825     28.3106E-03     29.4559E-03
            4625            4825     28.3106E-03     29.4559E-03
            4643            4825     28.3106E-03     29.4559E-03
            4626            4825     28.3106E-03     29.4559E-03
            4644            4826     26.2268E-03     27.3517E-03
            4627            4826     26.2268E-03     27.3517E-03
            4626            4826     26.2268E-03     27.3517E-03
            4645            4826     26.2268E-03     27.3517E-03
            4645            4827     24.1940E-03     25.3068E-03
            4627            4827     24.1940E-03     25.3068E-03
            4646            4827     24.1940E-03     25.3068E-03
            4628            4827     24.1940E-03     25.3068E-03
            4646            4828     22.2199E-03     23.3306E-03
            4629            4828     22.2199E-03     23.3306E-03
            4647            4828     22.2199E-03     23.3306E-03
            4628            4828     22.2199E-03     23.3306E-03
            4647            4829     20.2946E-03     21.4158E-03
            4629            4829     20.2946E-03     21.4158E-03
            4630            4829     20.2946E-03     21.4158E-03
            4648            4829     20.2946E-03     21.4158E-03
            4649            4830     18.4653E-03     19.6016E-03
            4630            4830     18.4653E-03     19.6016E-03
            4648            4830     18.4653E-03     19.6016E-03
            4631            4830     18.4653E-03     19.6016E-03
            4632            4831     16.6506E-03     17.8237E-03
            4649            4831     16.6506E-03     17.8237E-03
            4631            4831     16.6506E-03     17.8237E-03
            4650            4831     16.6506E-03     17.8237E-03
            4650            4832     14.7897E-03     15.9664E-03
            4632            4832     14.7897E-03     15.9664E-03
            4651            4832     14.7897E-03     15.9664E-03
            4633            4832     14.7897E-03     15.9664E-03
            4651            4833     12.8560E-03     14.0176E-03
            4633            4833     12.8560E-03     14.0176E-03
            4652            4833     12.8560E-03     14.0176E-03
            4634            4833     12.8560E-03     14.0176E-03
            4654            4834     48.9476E-03     49.6612E-03
            4635            4834     48.9476E-03     49.6612E-03
            4636            4834     48.9476E-03     49.6612E-03
            4653            4834     48.9476E-03     49.6612E-03
            4654            4835     46.1508E-03     46.9813E-03
            4637            4835     46.1508E-03     46.9813E-03
            4636            4835     46.1508E-03     46.9813E-03
            4655            4835     46.1508E-03     46.9813E-03
            4656            4836     43.3067E-03     44.3512E-03
            4655            4836     43.3067E-03     44.3512E-03
            4637            4836     43.3067E-03     44.3512E-03
            4638            4836     43.3067E-03     44.3512E-03
            4638            4837     40.5858E-03     41.7034E-03
            4639            4837     40.5858E-03     41.7034E-03
            4657            4837     40.5858E-03     41.7034E-03
            4656            4837     40.5858E-03     41.7034E-03
            4658            4838     37.9873E-03     39.1197E-03
            4639            4838     37.9873E-03     39.1197E-03
            4640            4838     37.9873E-03     39.1197E-03
            4657            4838     37.9873E-03     39.1197E-03
            4659            4839     35.5160E-03     36.6484E-03
            4641            4839     35.5160E-03     36.6484E-03
            4640            4839     35.5160E-03     36.6484E-03
            4658            4839     35.5160E-03     36.6484E-03
            4660            4840     33.2002E-03     34.2827E-03
            4641            4840     33.2002E-03     34.2827E-03
            4642            4840     33.2002E-03     34.2827E-03
            4659            4840     33.2002E-03     34.2827E-03
            4642            4841     30.9555E-03     31.9976E-03
            4660            4841     30.9555E-03     31.9976E-03
            4661            4841     30.9555E-03     31.9976E-03
            4643            4841     30.9555E-03     31.9976E-03
            4661            4842     28.7864E-03     29.7885E-03
            4662            4842     28.7864E-03     29.7885E-03
            4643            4842     28.7864E-03     29.7885E-03
            4644            4842     28.7864E-03     29.7885E-03
            4644            4843     26.6569E-03     27.6342E-03
            4645            4843     26.6569E-03     27.6342E-03
            4663            4843     26.6569E-03     27.6342E-03
            4662            4843     26.6569E-03     27.6342E-03
            4663            4844     24.5711E-03     25.5393E-03
            4664            4844     24.5711E-03     25.5393E-03
            4645            4844     24.5711E-03     25.5393E-03
            4646            4844     24.5711E-03     25.5393E-03
            4665            4845     22.5095E-03     23.4880E-03
            4647            4845     22.5095E-03     23.4880E-03
            4646            4845     22.5095E-03     23.4880E-03
            4664            4845     22.5095E-03     23.4880E-03
            4648            4846     20.4870E-03     21.4893E-03
            4666            4846     20.4870E-03     21.4893E-03
            4647            4846     20.4870E-03     21.4893E-03
            4665            4846     20.4870E-03     21.4893E-03
            4648            4847     18.4682E-03     19.5191E-03
            4667            4847     18.4682E-03     19.5191E-03
            4649            4847     18.4682E-03     19.5191E-03
            4666            4847     18.4682E-03     19.5191E-03
            4667            4848     16.4452E-03     17.5256E-03
            4650            4848     16.4452E-03     17.5256E-03
            4649            4848     16.4452E-03     17.5256E-03
            4668            4848     16.4452E-03     17.5256E-03
            4668            4849     14.4037E-03     15.5122E-03
            4669            4849     14.4037E-03     15.5122E-03
            4650            4849     14.4037E-03     15.5122E-03
            4651            4849     14.4037E-03     15.5122E-03
            4669            4850     12.3916E-03     13.4680E-03
            4651            4850     12.3916E-03     13.4680E-03
            4652            4850     12.3916E-03     13.4680E-03
            4670            4850     12.3916E-03     13.4680E-03
            4654            4851     47.0615E-03     47.6141E-03
            4653            4851     47.0615E-03     47.6141E-03
            4672            4851     47.0615E-03     47.6141E-03
            4671            4851     47.0615E-03     47.6141E-03
            4673            4852     44.6726E-03     45.5019E-03
            4672            4852     44.6726E-03     45.5019E-03
            4655            4852     44.6726E-03     45.5019E-03
            4654            4852     44.6726E-03     45.5019E-03
            4656            4853     42.4304E-03     43.3802E-03
            4673            4853     42.4304E-03     43.3802E-03
            4655            4853     42.4304E-03     43.3802E-03
            4674            4853     42.4304E-03     43.3802E-03
            4675            4854     40.1668E-03     41.2067E-03
            4656            4854     40.1668E-03     41.2067E-03
            4674            4854     40.1668E-03     41.2067E-03
            4657            4854     40.1668E-03     41.2067E-03
            4658            4855     37.9151E-03     38.9525E-03
            4676            4855     37.9151E-03     38.9525E-03
            4675            4855     37.9151E-03     38.9525E-03
            4657            4855     37.9151E-03     38.9525E-03
            4659            4856     35.6794E-03     36.6631E-03
            4658            4856     35.6794E-03     36.6631E-03
            4677            4856     35.6794E-03     36.6631E-03
            4676            4856     35.6794E-03     36.6631E-03
            4659            4857     33.4500E-03     34.3859E-03
            4677            4857     33.4500E-03     34.3859E-03
            4678            4857     33.4500E-03     34.3859E-03
            4660            4857     33.4500E-03     34.3859E-03
            4678            4858     31.2648E-03     32.1401E-03
            4661            4858     31.2648E-03     32.1401E-03
            4679            4858     31.2648E-03     32.1401E-03
            4660            4858     31.2648E-03     32.1401E-03
            4679            4859     29.0939E-03     29.9292E-03
            4661            4859     29.0939E-03     29.9292E-03
            4662            4859     29.0939E-03     29.9292E-03
            4680            4859     29.0939E-03     29.9292E-03
            4662            4860     26.9553E-03     27.7635E-03
            4681            4860     26.9553E-03     27.7635E-03
            4680            4860     26.9553E-03     27.7635E-03
            4663            4860     26.9553E-03     27.7635E-03
            4682            4861     24.8265E-03     25.6305E-03
            4681            4861     24.8265E-03     25.6305E-03
            4663            4861     24.8265E-03     25.6305E-03
            4664            4861     24.8265E-03     25.6305E-03
            4665            4862     22.7129E-03     23.5377E-03
            4683            4862     22.7129E-03     23.5377E-03
            4682            4862     22.7129E-03     23.5377E-03
            4664            4862     22.7129E-03     23.5377E-03
            4665            4863     20.5896E-03     21.4648E-03
            4683            4863     20.5896E-03     21.4648E-03
            4666            4863     20.5896E-03     21.4648E-03
            4684            4863     20.5896E-03     21.4648E-03
            4684            4864     18.4496E-03     19.3813E-03
            4685            4864     18.4496E-03     19.3813E-03
            4666            4864     18.4496E-03     19.3813E-03
            4667            4864     18.4496E-03     19.3813E-03
            4686            4865     16.2808E-03     17.2895E-03
            4668            4865     16.2808E-03     17.2895E-03
            4667            4865     16.2808E-03     17.2895E-03
            4685            4865     16.2808E-03     17.2895E-03
            4686            4866     14.1281E-03     15.1501E-03
            4669            4866     14.1281E-03     15.1501E-03
            4668            4866     14.1281E-03     15.1501E-03
            4687            4866     14.1281E-03     15.1501E-03
            4669            4867     12.0964E-03     13.0891E-03
            4687            4867     12.0964E-03     13.0891E-03
            4670            4867     12.0964E-03     13.0891E-03
            4688            4867     12.0964E-03     13.0891E-03
            4689            4868     44.9860E-03     45.5015E-03
            4690            4868     44.9860E-03     45.5015E-03
            4671            4868     44.9860E-03     45.5015E-03
            4672            4868     44.9860E-03     45.5015E-03
            4672            4869     43.0896E-03     43.8191E-03
            4690            4869     43.0896E-03     43.8191E-03
            4673            4869     43.0896E-03     43.8191E-03
            4691            4869     43.0896E-03     43.8191E-03
            4674            4870     41.2782E-03     42.1889E-03
            4673            4870     41.2782E-03     42.1889E-03
            4692            4870     41.2782E-03     42.1889E-03
            4691            4870     41.2782E-03     42.1889E-03
            4675            4871     39.4676E-03     40.3953E-03
            4693            4871     39.4676E-03     40.3953E-03
            4692            4871     39.4676E-03     40.3953E-03
            4674            4871     39.4676E-03     40.3953E-03
            4676            4872     37.5492E-03     38.4299E-03
            4693            4872     37.5492E-03     38.4299E-03
            4675            4872     37.5492E-03     38.4299E-03
            4694            4872     37.5492E-03     38.4299E-03
            4694            4873     35.5267E-03     36.3391E-03
            4677            4873     35.5267E-03     36.3391E-03
            4676            4873     35.5267E-03     36.3391E-03
            4695            4873     35.5267E-03     36.3391E-03
            4696            4874     33.4449E-03     34.1796E-03
            4678            4874     33.4449E-03     34.1796E-03
            4677            4874     33.4449E-03     34.1796E-03
            4695            4874     33.4449E-03     34.1796E-03
            4678            4875     31.3216E-03     32.0022E-03
            4696            4875     31.3216E-03     32.0022E-03
            4679            4875     31.3216E-03     32.0022E-03
            4697            4875     31.3216E-03     32.0022E-03
            4697            4876     29.1981E-03     29.8328E-03
            4679            4876     29.1981E-03     29.8328E-03
            4698            4876     29.1981E-03     29.8328E-03
            4680            4876     29.1981E-03     29.8328E-03
            4680            4877     27.0650E-03     27.6781E-03
            4681            4877     27.0650E-03     27.6781E-03
            4699            4877     27.0650E-03     27.6781E-03
            4698            4877     27.0650E-03     27.6781E-03
            4700            4878     24.9373E-03     25.5498E-03
            4681            4878     24.9373E-03     25.5498E-03
            4699            4878     24.9373E-03     25.5498E-03
            4682            4878     24.9373E-03     25.5498E-03
            4682            4879     22.7941E-03     23.4349E-03
            4683            4879     22.7941E-03     23.4349E-03
            4701            4879     22.7941E-03     23.4349E-03
            4700            4879     22.7941E-03     23.4349E-03
            4702            4880     20.6254E-03     21.3337E-03
            4684            4880     20.6254E-03     21.3337E-03
            4701            4880     20.6254E-03     21.3337E-03
            4683            4880     20.6254E-03     21.3337E-03
            4684            4881     18.4128E-03     19.2257E-03
            4703            4881     18.4128E-03     19.2257E-03
            4702            4881     18.4128E-03     19.2257E-03
            4685            4881     18.4128E-03     19.2257E-03
            4704            4882     16.1654E-03     17.0598E-03
            4686            4882     16.1654E-03     17.0598E-03
            4685            4882     16.1654E-03     17.0598E-03
            4703            4882     16.1654E-03     17.0598E-03
            4687            4883     13.9382E-03     14.9180E-03
            4704            4883     13.9382E-03     14.9180E-03
            4686            4883     13.9382E-03     14.9180E-03
            4705            4883     13.9382E-03     14.9180E-03
            4706            4884     11.9547E-03     12.8611E-03
            4705            4884     11.9547E-03     12.8611E-03
            4688            4884     11.9547E-03     12.8611E-03
            4687            4884     11.9547E-03     12.8611E-03
            4708            4885     42.8423E-03     43.2322E-03
            4690            4885     42.8423E-03     43.2322E-03
            4707            4885     42.8423E-03     43.2322E-03
            4689            4885     42.8423E-03     43.2322E-03
            4690            4886     41.2962E-03     42.0098E-03
            4709            4886     41.2962E-03     42.0098E-03
            4691            4886     41.2962E-03     42.0098E-03
            4708            4886     41.2962E-03     42.0098E-03
            4710            4887     39.9616E-03     40.7581E-03
            4692            4887     39.9616E-03     40.7581E-03
            4691            4887     39.9616E-03     40.7581E-03
            4709            4887     39.9616E-03     40.7581E-03
            4711            4888     38.5399E-03     39.2940E-03
            4692            4888     38.5399E-03     39.2940E-03
            4693            4888     38.5399E-03     39.2940E-03
            4710            4888     38.5399E-03     39.2940E-03
            4712            4889     36.9137E-03     37.5711E-03
            4693            4889     36.9137E-03     37.5711E-03
            4694            4889     36.9137E-03     37.5711E-03
            4711            4889     36.9137E-03     37.5711E-03
            4713            4890     35.0911E-03     35.6574E-03
            4712            4890     35.0911E-03     35.6574E-03
            4695            4890     35.0911E-03     35.6574E-03
            4694            4890     35.0911E-03     35.6574E-03
            4696            4891     33.1395E-03     33.6361E-03
            4714            4891     33.1395E-03     33.6361E-03
            4713            4891     33.1395E-03     33.6361E-03
            4695            4891     33.1395E-03     33.6361E-03
            4696            4892     31.1182E-03     31.5595E-03
            4715            4892     31.1182E-03     31.5595E-03
            4714            4892     31.1182E-03     31.5595E-03
            4697            4892     31.1182E-03     31.5595E-03
            4698            4893     29.0519E-03     29.4615E-03
            4697            4893     29.0519E-03     29.4615E-03
            4715            4893     29.0519E-03     29.4615E-03
            4716            4893     29.0519E-03     29.4615E-03
            4698            4894     26.9718E-03     27.3625E-03
            4716            4894     26.9718E-03     27.3625E-03
            4717            4894     26.9718E-03     27.3625E-03
            4699            4894     26.9718E-03     27.3625E-03
            4700            4895     24.8712E-03     25.2656E-03
            4699            4895     24.8712E-03     25.2656E-03
            4717            4895     24.8712E-03     25.2656E-03
            4718            4895     24.8712E-03     25.2656E-03
            4718            4896     22.7537E-03     23.1784E-03
            4701            4896     22.7537E-03     23.1784E-03
            4700            4896     22.7537E-03     23.1784E-03
            4719            4896     22.7537E-03     23.1784E-03
            4720            4897     20.5973E-03     21.0893E-03
            4701            4897     20.5973E-03     21.0893E-03
            4702            4897     20.5973E-03     21.0893E-03
            4719            4897     20.5973E-03     21.0893E-03
            4702            4898     18.3788E-03     19.0130E-03
            4721            4898     18.3788E-03     19.0130E-03
            4720            4898     18.3788E-03     19.0130E-03
            4703            4898     18.3788E-03     19.0130E-03
            4703            4899     16.1064E-03     16.9225E-03
            4722            4899     16.1064E-03     16.9225E-03
            4721            4899     16.1064E-03     16.9225E-03
            4704            4899     16.1064E-03     16.9225E-03
            4723            4900     13.8801E-03     14.7543E-03
            4704            4900     13.8801E-03     14.7543E-03
            4705            4900     13.8801E-03     14.7543E-03
            4722            4900     13.8801E-03     14.7543E-03
            4723            4901     11.9018E-03     12.8200E-03
            4724            4901     11.9018E-03     12.8200E-03
            4705            4901     11.9018E-03     12.8200E-03
            4706            4901     11.9018E-03     12.8200E-03
            4726            4902     40.5108E-03     40.8649E-03
            4708            4902     40.5108E-03     40.8649E-03
            4707            4902     40.5108E-03     40.8649E-03
            4725            4902     40.5108E-03     40.8649E-03
            4708            4903     39.3620E-03     39.9557E-03
            4709            4903     39.3620E-03     39.9557E-03
            4726            4903     39.3620E-03     39.9557E-03
            4727            4903     39.3620E-03     39.9557E-03
            4728            4904     38.5177E-03     39.0794E-03
            4709            4904     38.5177E-03     39.0794E-03
            4727            4904     38.5177E-03     39.0794E-03
            4710            4904     38.5177E-03     39.0794E-03
            4728            4905     37.4403E-03     37.8737E-03
            4710            4905     37.4403E-03     37.8737E-03
            4711            4905     37.4403E-03     37.8737E-03
            4729            4905     37.4403E-03     37.8737E-03
            4711            4906     36.0189E-03     36.3482E-03
            4729            4906     36.0189E-03     36.3482E-03
            4730            4906     36.0189E-03     36.3482E-03
            4712            4906     36.0189E-03     36.3482E-03
            4731            4907     34.3635E-03     34.6144E-03
            4730            4907     34.3635E-03     34.6144E-03
            4713            4907     34.3635E-03     34.6144E-03
            4712            4907     34.3635E-03     34.6144E-03
            4713            4908     32.5456E-03     32.7497E-03
            4732            4908     32.5456E-03     32.7497E-03
            4714            4908     32.5456E-03     32.7497E-03
            4731            4908     32.5456E-03     32.7497E-03
            4714            4909     30.6307E-03     30.8077E-03
            4733            4909     30.6307E-03     30.8077E-03
            4715            4909     30.6307E-03     30.8077E-03
            4732            4909     30.6307E-03     30.8077E-03
            4716            4910     28.6621E-03     28.8226E-03
            4715            4910     28.6621E-03     28.8226E-03
            4734            4910     28.6621E-03     28.8226E-03
            4733            4910     28.6621E-03     28.8226E-03
            4734            4911     26.6579E-03     26.8154E-03
            4716            4911     26.6579E-03     26.8154E-03
            4717            4911     26.6579E-03     26.8154E-03
            4735            4911     26.6579E-03     26.8154E-03
            4736            4912     24.6357E-03     24.7966E-03
            4718            4912     24.6357E-03     24.7966E-03
            4735            4912     24.6357E-03     24.7966E-03
            4717            4912     24.6357E-03     24.7966E-03
            4719            4913     22.5881E-03     22.7721E-03
            4718            4913     22.5881E-03     22.7721E-03
            4737            4913     22.5881E-03     22.7721E-03
            4736            4913     22.5881E-03     22.7721E-03
            4719            4914     20.5111E-03     20.7504E-03
            4738            4914     20.5111E-03     20.7504E-03
            4720            4914     20.5111E-03     20.7504E-03
            4737            4914     20.5111E-03     20.7504E-03
            4721            4915     18.3802E-03     18.7345E-03
            4739            4915     18.3802E-03     18.7345E-03
            4738            4915     18.3802E-03     18.7345E-03
            4720            4915     18.3802E-03     18.7345E-03
            4721            4916     16.1659E-03     16.8028E-03
            4722            4916     16.1659E-03     16.8028E-03
            4740            4916     16.1659E-03     16.8028E-03
            4739            4916     16.1659E-03     16.8028E-03
            4740            4917     13.9487E-03     14.8781E-03
            4741            4917     13.9487E-03     14.8781E-03
            4723            4917     13.9487E-03     14.8781E-03
            4722            4917     13.9487E-03     14.8781E-03
            4741            4918     12.0891E-03     12.8757E-03
            4723            4918     12.0891E-03     12.8757E-03
            4742            4918     12.0891E-03     12.8757E-03
            4724            4918     12.0891E-03     12.8757E-03
            4725            4919     37.9519E-03     38.0183E-03
            4726            4919     37.9519E-03     38.0183E-03
            4743            4919     37.9519E-03     38.0183E-03
            4744            4919     37.9519E-03     38.0183E-03
            4745            4920     37.4292E-03     37.6049E-03
            4727            4920     37.4292E-03     37.6049E-03
            4744            4920     37.4292E-03     37.6049E-03
            4726            4920     37.4292E-03     37.6049E-03
            4745            4921     37.0428E-03     37.0705E-03
            4727            4921     37.0428E-03     37.0705E-03
            4746            4921     37.0428E-03     37.0705E-03
            4728            4921     37.0428E-03     37.0705E-03
            4746            4922     36.1309E-03     36.0646E-03
            4728            4922     36.1309E-03     36.0646E-03
            4729            4922     36.1309E-03     36.0646E-03
            4747            4922     36.1309E-03     36.0646E-03
            4747            4923     34.8675E-03     34.7447E-03
            4748            4923     34.8675E-03     34.7447E-03
            4729            4923     34.8675E-03     34.7447E-03
            4730            4923     34.8675E-03     34.7447E-03
            4748            4924     33.3474E-03     33.2197E-03
            4730            4924     33.3474E-03     33.2197E-03
            4749            4924     33.3474E-03     33.2197E-03
            4731            4924     33.3474E-03     33.2197E-03
            4750            4925     31.6713E-03     31.5503E-03
            4749            4925     31.6713E-03     31.5503E-03
            4732            4925     31.6713E-03     31.5503E-03
            4731            4925     31.6713E-03     31.5503E-03
            4732            4926     29.8889E-03     29.7846E-03
            4733            4926     29.8889E-03     29.7846E-03
            4750            4926     29.8889E-03     29.7846E-03
            4751            4926     29.8889E-03     29.7846E-03
            4751            4927     28.0426E-03     27.9566E-03
            4752            4927     28.0426E-03     27.9566E-03
            4734            4927     28.0426E-03     27.9566E-03
            4733            4927     28.0426E-03     27.9566E-03
            4753            4928     26.1570E-03     26.0840E-03
            4752            4928     26.1570E-03     26.0840E-03
            4735            4928     26.1570E-03     26.0840E-03
            4734            4928     26.1570E-03     26.0840E-03
            4753            4929     24.2464E-03     24.1862E-03
            4754            4929     24.2464E-03     24.1862E-03
            4735            4929     24.2464E-03     24.1862E-03
            4736            4929     24.2464E-03     24.1862E-03
            4737            4930     22.3200E-03     22.2672E-03
            4755            4930     22.3200E-03     22.2672E-03
            4754            4930     22.3200E-03     22.2672E-03
            4736            4930     22.3200E-03     22.2672E-03
            4738            4931     20.3787E-03     20.3485E-03
            4755            4931     20.3787E-03     20.3485E-03
            4737            4931     20.3787E-03     20.3485E-03
            4756            4931     20.3787E-03     20.3485E-03
            4739            4932     18.4192E-03     18.4457E-03
            4756            4932     18.4192E-03     18.4457E-03
            4738            4932     18.4192E-03     18.4457E-03
            4757            4932     18.4192E-03     18.4457E-03
            4757            4933     16.4208E-03     16.6279E-03
            4739            4933     16.4208E-03     16.6279E-03
            4740            4933     16.4208E-03     16.6279E-03
            4758            4933     16.4208E-03     16.6279E-03
            4741            4934     14.3335E-03     15.1039E-03
            4740            4934     14.3335E-03     15.1039E-03
            4758            4934     14.3335E-03     15.1039E-03
            4759            4934     14.3335E-03     15.1039E-03
            4741            4935     12.4775E-03     13.6638E-03
            4742            4935     12.4775E-03     13.6638E-03
            4760            4935     12.4775E-03     13.6638E-03
            4759            4935     12.4775E-03     13.6638E-03
            4743            4936     35.4859E-03     34.5051E-03
            4762            4936     35.4859E-03     34.5051E-03
            4744            4936     35.4859E-03     34.5051E-03
            4761            4936     35.4859E-03     34.5051E-03
            4745            4937     35.7658E-03     34.8930E-03
            4763            4937     35.7658E-03     34.8930E-03
            4762            4937     35.7658E-03     34.8930E-03
            4744            4937     35.7658E-03     34.8930E-03
            4745            4938     35.4461E-03     34.6017E-03
            4763            4938     35.4461E-03     34.6017E-03
            4764            4938     35.4461E-03     34.6017E-03
            4746            4938     35.4461E-03     34.6017E-03
            4746            4939     34.6022E-03     33.8458E-03
            4747            4939     34.6022E-03     33.8458E-03
            4765            4939     34.6022E-03     33.8458E-03
            4764            4939     34.6022E-03     33.8458E-03
            4747            4940     33.4462E-03     32.8017E-03
            4765            4940     33.4462E-03     32.8017E-03
            4766            4940     33.4462E-03     32.8017E-03
            4748            4940     33.4462E-03     32.8017E-03
            4748            4941     32.0833E-03     31.5427E-03
            4766            4941     32.0833E-03     31.5427E-03
            4749            4941     32.0833E-03     31.5427E-03
            4767            4941     32.0833E-03     31.5427E-03
            4749            4942     30.5684E-03     30.1217E-03
            4767            4942     30.5684E-03     30.1217E-03
            4768            4942     30.5684E-03     30.1217E-03
            4750            4942     30.5684E-03     30.1217E-03
            4769            4943     28.9536E-03     28.5839E-03
            4750            4943     28.9536E-03     28.5839E-03
            4751            4943     28.9536E-03     28.5839E-03
            4768            4943     28.9536E-03     28.5839E-03
            4770            4944     27.2643E-03     26.9534E-03
            4752            4944     27.2643E-03     26.9534E-03
            4769            4944     27.2643E-03     26.9534E-03
            4751            4944     27.2643E-03     26.9534E-03
            4753            4945     25.5297E-03     25.2613E-03
            4771            4945     25.5297E-03     25.2613E-03
            4770            4945     25.5297E-03     25.2613E-03
            4752            4945     25.5297E-03     25.2613E-03
            4772            4946     23.7640E-03     23.5181E-03
            4771            4946     23.7640E-03     23.5181E-03
            4753            4946     23.7640E-03     23.5181E-03
            4754            4946     23.7640E-03     23.5181E-03
            4755            4947     21.9927E-03     21.7503E-03
            4773            4947     21.9927E-03     21.7503E-03
            4754            4947     21.9927E-03     21.7503E-03
            4772            4947     21.9927E-03     21.7503E-03
            4774            4948     20.2231E-03     19.9646E-03
            4773            4948     20.2231E-03     19.9646E-03
            4756            4948     20.2231E-03     19.9646E-03
            4755            4948     20.2231E-03     19.9646E-03
            4757            4949     18.4993E-03     18.2109E-03
            4774            4949     18.4993E-03     18.2109E-03
            4756            4949     18.4993E-03     18.2109E-03
            4775            4949     18.4993E-03     18.2109E-03
            4757            4950     16.8136E-03     16.5181E-03
            4776            4950     16.8136E-03     16.5181E-03
            4758            4950     16.8136E-03     16.5181E-03
            4775            4950     16.8136E-03     16.5181E-03
            4759            4951     15.2333E-03     15.1438E-03
            4777            4951     15.2333E-03     15.1438E-03
            4758            4951     15.2333E-03     15.1438E-03
            4776            4951     15.2333E-03     15.1438E-03
            4759            4952     13.5858E-03     14.4080E-03
            4777            4952     13.5858E-03     14.4080E-03
            4760            4952     13.5858E-03     14.4080E-03
            4778            4952     13.5858E-03     14.4080E-03
            4762            4953     33.2235E-03     34.0737E-03
            4780            4953     33.2235E-03     34.0737E-03
            4761            4953     33.2235E-03     34.0737E-03
            4779            4953     33.2235E-03     34.0737E-03
            4763            4954     30.1481E-03     30.3040E-03
            4780            4954     30.1481E-03     30.3040E-03
            4762            4954     30.1481E-03     30.3040E-03
            4781            4954     30.1481E-03     30.3040E-03
            4763            4955     28.3194E-03     28.3733E-03
            4764            4955     28.3194E-03     28.3733E-03
            4781            4955     28.3194E-03     28.3733E-03
            4782            4955     28.3194E-03     28.3733E-03
            4782            4956     26.6343E-03     26.7880E-03
            4783            4956     26.6343E-03     26.7880E-03
            4764            4956     26.6343E-03     26.7880E-03
            4765            4956     26.6343E-03     26.7880E-03
            4784            4957     25.1858E-03     25.4137E-03
            4766            4957     25.1858E-03     25.4137E-03
            4783            4957     25.1858E-03     25.4137E-03
            4765            4957     25.1858E-03     25.4137E-03
            4785            4958     23.7709E-03     24.1222E-03
            4784            4958     23.7709E-03     24.1222E-03
            4767            4958     23.7709E-03     24.1222E-03
            4766            4958     23.7709E-03     24.1222E-03
            4785            4959     22.4302E-03     22.8600E-03
            4786            4959     22.4302E-03     22.8600E-03
            4767            4959     22.4302E-03     22.8600E-03
            4768            4959     22.4302E-03     22.8600E-03
            4768            4960     21.0869E-03     21.5986E-03
            4787            4960     21.0869E-03     21.5986E-03
            4786            4960     21.0869E-03     21.5986E-03
            4769            4960     21.0869E-03     21.5986E-03
            4788            4961     19.7670E-03     20.3283E-03
            4770            4961     19.7670E-03     20.3283E-03
            4787            4961     19.7670E-03     20.3283E-03
            4769            4961     19.7670E-03     20.3283E-03
            4788            4962     18.4415E-03     19.0433E-03
            4770            4962     18.4415E-03     19.0433E-03
            4771            4962     18.4415E-03     19.0433E-03
            4789            4962     18.4415E-03     19.0433E-03
            4789            4963     17.1357E-03     17.7531E-03
            4771            4963     17.1357E-03     17.7531E-03
            4772            4963     17.1357E-03     17.7531E-03
            4790            4963     17.1357E-03     17.7531E-03
            4772            4964     15.8467E-03     16.4654E-03
            4791            4964     15.8467E-03     16.4654E-03
            4773            4964     15.8467E-03     16.4654E-03
            4790            4964     15.8467E-03     16.4654E-03
            4792            4965     14.6123E-03     15.2050E-03
            4791            4965     14.6123E-03     15.2050E-03
            4773            4965     14.6123E-03     15.2050E-03
            4774            4965     14.6123E-03     15.2050E-03
            4775            4966     13.4589E-03     14.0102E-03
            4792            4966     13.4589E-03     14.0102E-03
            4793            4966     13.4589E-03     14.0102E-03
            4774            4966     13.4589E-03     14.0102E-03
            4776            4967     12.4708E-03     12.9486E-03
            4775            4967     12.4708E-03     12.9486E-03
            4793            4967     12.4708E-03     12.9486E-03
            4794            4967     12.4708E-03     12.9486E-03
            4794            4968     11.7443E-03     12.2038E-03
            4776            4968     11.7443E-03     12.2038E-03
            4777            4968     11.7443E-03     12.2038E-03
            4795            4968     11.7443E-03     12.2038E-03
            4796            4969     11.7482E-03     12.5509E-03
            4777            4969     11.7482E-03     12.5509E-03
            4778            4969     11.7482E-03     12.5509E-03
            4795            4969     11.7482E-03     12.5509E-03
            4779            4970     32.8727E-03     34.2069E-03
            4798            4970     32.8727E-03     34.2069E-03
            4780            4970     32.8727E-03     34.2069E-03
            4797            4970     32.8727E-03     34.2069E-03
            4798            4971     25.9953E-03     27.5543E-03
            4799            4971     25.9953E-03     27.5543E-03
            4780            4971     25.9953E-03     27.5543E-03
            4781            4971     25.9953E-03     27.5543E-03
            4781            4972     22.1904E-03     23.5814E-03
            4782            4972     22.1904E-03     23.5814E-03
            4799            4972     22.1904E-03     23.5814E-03
            4800            4972     22.1904E-03     23.5814E-03
            4801            4973     19.7086E-03     21.0384E-03
            4782            4973     19.7086E-03     21.0384E-03
            4783            4973     19.7086E-03     21.0384E-03
            4800            4973     19.7086E-03     21.0384E-03
            4783            4974     17.7970E-03     19.1297E-03
            4802            4974     17.7970E-03     19.1297E-03
            4784            4974     17.7970E-03     19.1297E-03
            4801            4974     17.7970E-03     19.1297E-03
            4803            4975     16.2995E-03     17.6493E-03
            4784            4975     16.2995E-03     17.6493E-03
            4802            4975     16.2995E-03     17.6493E-03
            4785            4975     16.2995E-03     17.6493E-03
            4804            4976     15.0082E-03     16.3890E-03
            4785            4976     15.0082E-03     16.3890E-03
            4786            4976     15.0082E-03     16.3890E-03
            4803            4976     15.0082E-03     16.3890E-03
            4805            4977     13.8721E-03     15.2768E-03
            4786            4977     13.8721E-03     15.2768E-03
            4804            4977     13.8721E-03     15.2768E-03
            4787            4977     13.8721E-03     15.2768E-03
            4788            4978     12.8144E-03     14.2393E-03
            4806            4978     12.8144E-03     14.2393E-03
            4805            4978     12.8144E-03     14.2393E-03
            4787            4978     12.8144E-03     14.2393E-03
            4806            4979     11.8240E-03     13.2593E-03
            4788            4979     11.8240E-03     13.2593E-03
            4807            4979     11.8240E-03     13.2593E-03
            4789            4979     11.8240E-03     13.2593E-03
            4790            4980     10.8752E-03     12.3141E-03
            4808            4980     10.8752E-03     12.3141E-03
            4807            4980     10.8752E-03     12.3141E-03
            4789            4980     10.8752E-03     12.3141E-03
            4790            4981     9.98957E-03     11.4212E-03
            4791            4981     9.98957E-03     11.4212E-03
            4808            4981     9.98957E-03     11.4212E-03
            4809            4981     9.98957E-03     11.4212E-03
            4792            4982     9.16622E-03     10.5849E-03
            4810            4982     9.16622E-03     10.5849E-03
            4809            4982     9.16622E-03     10.5849E-03
            4791            4982     9.16622E-03     10.5849E-03
            4810            4983     8.48511E-03     9.87958E-03
            4792            4983     8.48511E-03     9.87958E-03
            4811            4983     8.48511E-03     9.87958E-03
            4793            4983     8.48511E-03     9.87958E-03
            4793            4984     7.96999E-03     9.33875E-03
            4811            4984     7.96999E-03     9.33875E-03
            4812            4984     7.96999E-03     9.33875E-03
            4794            4984     7.96999E-03     9.33875E-03
            4795            4985     7.95851E-03     9.28587E-03
            4794            4985     7.95851E-03     9.28587E-03
            4812            4985     7.95851E-03     9.28587E-03
            4813            4985     7.95851E-03     9.28587E-03
            4813            4986     8.98415E-03     10.1353E-03
            4796            4986     8.98415E-03     10.1353E-03
            4795            4986     8.98415E-03     10.1353E-03
            4814            4986     8.98415E-03     10.1353E-03
            4797            4987     32.2926E-03     32.4216E-03
            4798            4987     32.2926E-03     32.4216E-03
            4816            4987     32.2926E-03     32.4216E-03
            4815            4987     32.2926E-03     32.4216E-03
            4816            4988     26.9356E-03     27.6476E-03
            4799            4988     26.9356E-03     27.6476E-03
            4798            4988     26.9356E-03     27.6476E-03
            4817            4988     26.9356E-03     27.6476E-03
            4817            4989     22.6786E-03     23.7700E-03
            4799            4989     22.6786E-03     23.7700E-03
            4818            4989     22.6786E-03     23.7700E-03
            4800            4989     22.6786E-03     23.7700E-03
            4819            4990     20.0635E-03     21.2085E-03
            4818            4990     20.0635E-03     21.2085E-03
            4801            4990     20.0635E-03     21.2085E-03
            4800            4990     20.0635E-03     21.2085E-03
            4801            4991     18.1339E-03     19.2985E-03
            4802            4991     18.1339E-03     19.2985E-03
            4819            4991     18.1339E-03     19.2985E-03
            4820            4991     18.1339E-03     19.2985E-03
            4820            4992     16.6075E-03     17.7897E-03
            4821            4992     16.6075E-03     17.7897E-03
            4802            4992     16.6075E-03     17.7897E-03
            4803            4992     16.6075E-03     17.7897E-03
            4804            4993     15.3303E-03     16.5168E-03
            4821            4993     15.3303E-03     16.5168E-03
            4822            4993     15.3303E-03     16.5168E-03
            4803            4993     15.3303E-03     16.5168E-03
            4822            4994     14.1824E-03     15.3775E-03
            4804            4994     14.1824E-03     15.3775E-03
            4805            4994     14.1824E-03     15.3775E-03
            4823            4994     14.1824E-03     15.3775E-03
            4806            4995     13.1235E-03     14.3205E-03
            4823            4995     13.1235E-03     14.3205E-03
            4805            4995     13.1235E-03     14.3205E-03
            4824            4995     13.1235E-03     14.3205E-03
            4807            4996     12.1115E-03     13.3108E-03
            4825            4996     12.1115E-03     13.3108E-03
            4824            4996     12.1115E-03     13.3108E-03
            4806            4996     12.1115E-03     13.3108E-03
            4825            4997     11.1480E-03     12.3432E-03
            4808            4997     11.1480E-03     12.3432E-03
            4826            4997     11.1480E-03     12.3432E-03
            4807            4997     11.1480E-03     12.3432E-03
            4827            4998     10.2295E-03     11.4181E-03
            4808            4998     10.2295E-03     11.4181E-03
            4809            4998     10.2295E-03     11.4181E-03
            4826            4998     10.2295E-03     11.4181E-03
            4810            4999     9.39355E-03     10.5637E-03
            4827            4999     9.39355E-03     10.5637E-03
            4809            4999     9.39355E-03     10.5637E-03
            4828            4999     9.39355E-03     10.5637E-03
            4828            5000     8.67887E-03     9.81893E-03
            4829            5000     8.67887E-03     9.81893E-03
            4810            5000     8.67887E-03     9.81893E-03
            4811            5000     8.67887E-03     9.81893E-03
            4811            5001     8.18057E-03     9.26156E-03
            4829            5001     8.18057E-03     9.26156E-03
            4830            5001     8.18057E-03     9.26156E-03
            4812            5001     8.18057E-03     9.26156E-03
            4813            5002     8.22298E-03     9.12308E-03
            4812            5002     8.22298E-03     9.12308E-03
            4830            5002     8.22298E-03     9.12308E-03
            4831            5002     8.22298E-03     9.12308E-03
            4831            5003     8.50018E-03     9.08364E-03
            4813            5003     8.50018E-03     9.08364E-03
            4814            5003     8.50018E-03     9.08364E-03
            4832            5003     8.50018E-03     9.08364E-03
            4833            5004     30.1005E-03     30.6866E-03
            4816            5004     30.1005E-03     30.6866E-03
            4834            5004     30.1005E-03     30.6866E-03
            4815            5004     30.1005E-03     30.6866E-03
            4835            5005     26.3900E-03     26.8770E-03
            4816            5005     26.3900E-03     26.8770E-03
            4834            5005     26.3900E-03     26.8770E-03
            4817            5005     26.3900E-03     26.8770E-03
            4817            5006     22.9895E-03     23.7072E-03
            4835            5006     22.9895E-03     23.7072E-03
            4818            5006     22.9895E-03     23.7072E-03
            4836            5006     22.9895E-03     23.7072E-03
            4818            5007     20.3501E-03     21.2807E-03
            4836            5007     20.3501E-03     21.2807E-03
            4837            5007     20.3501E-03     21.2807E-03
            4819            5007     20.3501E-03     21.2807E-03
            4819            5008     18.4943E-03     19.4696E-03
            4837            5008     18.4943E-03     19.4696E-03
            4838            5008     18.4943E-03     19.4696E-03
            4820            5008     18.4943E-03     19.4696E-03
            4838            5009     16.9887E-03     17.9807E-03
            4839            5009     16.9887E-03     17.9807E-03
            4820            5009     16.9887E-03     17.9807E-03
            4821            5009     16.9887E-03     17.9807E-03
            4840            5010     15.7130E-03     16.7047E-03
            4839            5010     15.7130E-03     16.7047E-03
            4821            5010     15.7130E-03     16.7047E-03
            4822            5010     15.7130E-03     16.7047E-03
            4841            5011     14.5636E-03     15.5458E-03
            4840            5011     14.5636E-03     15.5458E-03
            4823            5011     14.5636E-03     15.5458E-03
            4822            5011     14.5636E-03     15.5458E-03
            4841            5012     13.4853E-03     14.4606E-03
            4842            5012     13.4853E-03     14.4606E-03
            4824            5012     13.4853E-03     14.4606E-03
            4823            5012     13.4853E-03     14.4606E-03
            4843            5013     12.4551E-03     13.4220E-03
            4825            5013     12.4551E-03     13.4220E-03
            4824            5013     12.4551E-03     13.4220E-03
            4842            5013     12.4551E-03     13.4220E-03
            4825            5014     11.4622E-03     12.4229E-03
            4844            5014     11.4622E-03     12.4229E-03
            4826            5014     11.4622E-03     12.4229E-03
            4843            5014     11.4622E-03     12.4229E-03
            4827            5015     10.5154E-03     11.4659E-03
            4845            5015     10.5154E-03     11.4659E-03
            4844            5015     10.5154E-03     11.4659E-03
            4826            5015     10.5154E-03     11.4659E-03
            4827            5016     9.64335E-03     10.5773E-03
            4845            5016     9.64335E-03     10.5773E-03
            4846            5016     9.64335E-03     10.5773E-03
            4828            5016     9.64335E-03     10.5773E-03
            4829            5017     8.87641E-03     9.77547E-03
            4846            5017     8.87641E-03     9.77547E-03
            4828            5017     8.87641E-03     9.77547E-03
            4847            5017     8.87641E-03     9.77547E-03
            4847            5018     8.35894E-03     9.16778E-03
            4848            5018     8.35894E-03     9.16778E-03
            4829            5018     8.35894E-03     9.16778E-03
            4830            5018     8.35894E-03     9.16778E-03
            4831            5019     8.05479E-03     8.70335E-03
            4849            5019     8.05479E-03     8.70335E-03
            4848            5019     8.05479E-03     8.70335E-03
            4830            5019     8.05479E-03     8.70335E-03
            4850            5020     7.82351E-03     8.33810E-03
            4832            5020     7.82351E-03     8.33810E-03
            4831            5020     7.82351E-03     8.33810E-03
            4849            5020     7.82351E-03     8.33810E-03
            4834            5021     28.0990E-03     28.3978E-03
            4852            5021     28.0990E-03     28.3978E-03
            4833            5021     28.0990E-03     28.3978E-03
            4851            5021     28.0990E-03     28.3978E-03
            4834            5022     25.0159E-03     25.5429E-03
            4835            5022     25.0159E-03     25.5429E-03
            4852            5022     25.0159E-03     25.5429E-03
            4853            5022     25.0159E-03     25.5429E-03
            4836            5023     22.5210E-03     23.1252E-03
            4835            5023     22.5210E-03     23.1252E-03
            4854            5023     22.5210E-03     23.1252E-03
            4853            5023     22.5210E-03     23.1252E-03
            4836            5024     20.4277E-03     21.1394E-03
            4855            5024     20.4277E-03     21.1394E-03
            4837            5024     20.4277E-03     21.1394E-03
            4854            5024     20.4277E-03     21.1394E-03
            4837            5025     18.7182E-03     19.5133E-03
            4838            5025     18.7182E-03     19.5133E-03
            4855            5025     18.7182E-03     19.5133E-03
            4856            5025     18.7182E-03     19.5133E-03
            4838            5026     17.3386E-03     18.1329E-03
            4857            5026     17.3386E-03     18.1329E-03
            4839            5026     17.3386E-03     18.1329E-03
            4856            5026     17.3386E-03     18.1329E-03
            4840            5027     16.0984E-03     16.8831E-03
            4857            5027     16.0984E-03     16.8831E-03
            4839            5027     16.0984E-03     16.8831E-03
            4858            5027     16.0984E-03     16.8831E-03
            4840            5028     14.9595E-03     15.7249E-03
            4841            5028     14.9595E-03     15.7249E-03
            4858            5028     14.9595E-03     15.7249E-03
            4859            5028     14.9595E-03     15.7249E-03
            4841            5029     13.8694E-03     14.6181E-03
            4842            5029     13.8694E-03     14.6181E-03
            4860            5029     13.8694E-03     14.6181E-03
            4859            5029     13.8694E-03     14.6181E-03
            4842            5030     12.8180E-03     13.5542E-03
            4861            5030     12.8180E-03     13.5542E-03
            4843            5030     12.8180E-03     13.5542E-03
            4860            5030     12.8180E-03     13.5542E-03
            4862            5031     11.7940E-03     12.5223E-03
            4844            5031     11.7940E-03     12.5223E-03
            4861            5031     11.7940E-03     12.5223E-03
            4843            5031     11.7940E-03     12.5223E-03
            4862            5032     10.8128E-03     11.5345E-03
            4863            5032     10.8128E-03     11.5345E-03
            4844            5032     10.8128E-03     11.5345E-03
            4845            5032     10.8128E-03     11.5345E-03
            4845            5033     9.87886E-03     10.5903E-03
            4846            5033     9.87886E-03     10.5903E-03
            4863            5033     9.87886E-03     10.5903E-03
            4864            5033     9.87886E-03     10.5903E-03
            4865            5034     9.05675E-03     9.73974E-03
            4846            5034     9.05675E-03     9.73974E-03
            4847            5034     9.05675E-03     9.73974E-03
            4864            5034     9.05675E-03     9.73974E-03
            4866            5035     8.36226E-03     8.97481E-03
            4847            5035     8.36226E-03     8.97481E-03
            4865            5035     8.36226E-03     8.97481E-03
            4848            5035     8.36226E-03     8.97481E-03
            4849            5036     7.80572E-03     8.33118E-03
            4866            5036     7.80572E-03     8.33118E-03
            4867            5036     7.80572E-03     8.33118E-03
            4848            5036     7.80572E-03     8.33118E-03
            4867            5037     7.53201E-03     7.87620E-03
            4868            5037     7.53201E-03     7.87620E-03
            4849            5037     7.53201E-03     7.87620E-03
            4850            5037     7.53201E-03     7.87620E-03
            4869            5038     25.9277E-03     26.2223E-03
            4870            5038     25.9277E-03     26.2223E-03
            4851            5038     25.9277E-03     26.2223E-03
            4852            5038     25.9277E-03     26.2223E-03
            4852            5039     23.5273E-03     23.8939E-03
            4870            5039     23.5273E-03     23.8939E-03
            4871            5039     23.5273E-03     23.8939E-03
            4853            5039     23.5273E-03     23.8939E-03
            4853            5040     21.6199E-03     22.1569E-03
            4871            5040     21.6199E-03     22.1569E-03
            4872            5040     21.6199E-03     22.1569E-03
            4854            5040     21.6199E-03     22.1569E-03
            4873            5041     20.1071E-03     20.7007E-03
            4854            5041     20.1071E-03     20.7007E-03
            4872            5041     20.1071E-03     20.7007E-03
            4855            5041     20.1071E-03     20.7007E-03
            4874            5042     18.7842E-03     19.3857E-03
            4856            5042     18.7842E-03     19.3857E-03
            4855            5042     18.7842E-03     19.3857E-03
            4873            5042     18.7842E-03     19.3857E-03
            4875            5043     17.5610E-03     18.1591E-03
            4874            5043     17.5610E-03     18.1591E-03
            4857            5043     17.5610E-03     18.1591E-03
            4856            5043     17.5610E-03     18.1591E-03
            4857            5044     16.4242E-03     16.9869E-03
            4875            5044     16.4242E-03     16.9869E-03
            4876            5044     16.4242E-03     16.9869E-03
            4858            5044     16.4242E-03     16.9869E-03
            4858            5045     15.3074E-03     15.8457E-03
            4876            5045     15.3074E-03     15.8457E-03
            4877            5045     15.3074E-03     15.8457E-03
            4859            5045     15.3074E-03     15.8457E-03
            4877            5046     14.2247E-03     14.7392E-03
            4859            5046     14.2247E-03     14.7392E-03
            4878            5046     14.2247E-03     14.7392E-03
            4860            5046     14.2247E-03     14.7392E-03
            4878            5047     13.1546E-03     13.6560E-03
            4879            5047     13.1546E-03     13.6560E-03
            4860            5047     13.1546E-03     13.6560E-03
            4861            5047     13.1546E-03     13.6560E-03
            4879            5048     12.1100E-03     12.6040E-03
            4862            5048     12.1100E-03     12.6040E-03
            4861            5048     12.1100E-03     12.6040E-03
            4880            5048     12.1100E-03     12.6040E-03
            4880            5049     11.0802E-03     11.5781E-03
            4881            5049     11.0802E-03     11.5781E-03
            4862            5049     11.0802E-03     11.5781E-03
            4863            5049     11.0802E-03     11.5781E-03
            4882            5050     10.0949E-03     10.5976E-03
            4863            5050     10.0949E-03     10.5976E-03
            4881            5050     10.0949E-03     10.5976E-03
            4864            5050     10.0949E-03     10.5976E-03
            4883            5051     9.15967E-03     9.65589E-03
            4882            5051     9.15967E-03     9.65589E-03
            4865            5051     9.15967E-03     9.65589E-03
            4864            5051     9.15967E-03     9.65589E-03
            4865            5052     8.31143E-03     8.79124E-03
            4884            5052     8.31143E-03     8.79124E-03
            4883            5052     8.31143E-03     8.79124E-03
            4866            5052     8.31143E-03     8.79124E-03
            4885            5053     7.67148E-03     8.04579E-03
            4866            5053     7.67148E-03     8.04579E-03
            4867            5053     7.67148E-03     8.04579E-03
            4884            5053     7.67148E-03     8.04579E-03
            4885            5054     7.32279E-03     7.55864E-03
            4886            5054     7.32279E-03     7.55864E-03
            4867            5054     7.32279E-03     7.55864E-03
            4868            5054     7.32279E-03     7.55864E-03
            4888            5055     23.8182E-03     23.9619E-03
            4870            5055     23.8182E-03     23.9619E-03
            4887            5055     23.8182E-03     23.9619E-03
            4869            5055     23.8182E-03     23.9619E-03
            4889            5056     21.8130E-03     22.1596E-03
            4888            5056     21.8130E-03     22.1596E-03
            4871            5056     21.8130E-03     22.1596E-03
            4870            5056     21.8130E-03     22.1596E-03
            4872            5057     20.5538E-03     20.9765E-03
            4890            5057     20.5538E-03     20.9765E-03
            4889            5057     20.5538E-03     20.9765E-03
            4871            5057     20.5538E-03     20.9765E-03
            4873            5058     19.5598E-03     20.0231E-03
            4890            5058     19.5598E-03     20.0231E-03
            4872            5058     19.5598E-03     20.0231E-03
            4891            5058     19.5598E-03     20.0231E-03
            4892            5059     18.6314E-03     19.0572E-03
            4874            5059     18.6314E-03     19.0572E-03
            4891            5059     18.6314E-03     19.0572E-03
            4873            5059     18.6314E-03     19.0572E-03
            4874            5060     17.6550E-03     18.0221E-03
            4892            5060     17.6550E-03     18.0221E-03
            4893            5060     17.6550E-03     18.0221E-03
            4875            5060     17.6550E-03     18.0221E-03
            4894            5061     16.6129E-03     16.9436E-03
            4875            5061     16.6129E-03     16.9436E-03
            4876            5061     16.6129E-03     16.9436E-03
            4893            5061     16.6129E-03     16.9436E-03
            4876            5062     15.5605E-03     15.8528E-03
            4895            5062     15.5605E-03     15.8528E-03
            4894            5062     15.5605E-03     15.8528E-03
            4877            5062     15.5605E-03     15.8528E-03
            4877            5063     14.4884E-03     14.7600E-03
            4896            5063     14.4884E-03     14.7600E-03
            4878            5063     14.4884E-03     14.7600E-03
            4895            5063     14.4884E-03     14.7600E-03
            4897            5064     13.4253E-03     13.6820E-03
            4896            5064     13.4253E-03     13.6820E-03
            4879            5064     13.4253E-03     13.6820E-03
            4878            5064     13.4253E-03     13.6820E-03
            4879            5065     12.3607E-03     12.6176E-03
            4880            5065     12.3607E-03     12.6176E-03
            4897            5065     12.3607E-03     12.6176E-03
            4898            5065     12.3607E-03     12.6176E-03
            4898            5066     11.3094E-03     11.5758E-03
            4899            5066     11.3094E-03     11.5758E-03
            4880            5066     11.3094E-03     11.5758E-03
            4881            5066     11.3094E-03     11.5758E-03
            4881            5067     10.2575E-03     10.5555E-03
            4882            5067     10.2575E-03     10.5555E-03
            4899            5067     10.2575E-03     10.5555E-03
            4900            5067     10.2575E-03     10.5555E-03
            4882            5068     9.22906E-03     9.56749E-03
            4901            5068     9.22906E-03     9.56749E-03
            4900            5068     9.22906E-03     9.56749E-03
            4883            5068     9.22906E-03     9.56749E-03
            4902            5069     8.28424E-03     8.62137E-03
            4883            5069     8.28424E-03     8.62137E-03
            4901            5069     8.28424E-03     8.62137E-03
            4884            5069     8.28424E-03     8.62137E-03
            4902            5070     7.53381E-03     7.83792E-03
            4903            5070     7.53381E-03     7.83792E-03
            4885            5070     7.53381E-03     7.83792E-03
            4884            5070     7.53381E-03     7.83792E-03
            4904            5071     7.23883E-03     7.36375E-03
            4903            5071     7.23883E-03     7.36375E-03
            4886            5071     7.23883E-03     7.36375E-03
            4885            5071     7.23883E-03     7.36375E-03
            4887            5072     21.5886E-03     21.6575E-03
            4888            5072     21.5886E-03     21.6575E-03
            4905            5072     21.5886E-03     21.6575E-03
            4906            5072     21.5886E-03     21.6575E-03
            4889            5073     20.0428E-03     20.2799E-03
            4907            5073     20.0428E-03     20.2799E-03
            4906            5073     20.0428E-03     20.2799E-03
            4888            5073     20.0428E-03     20.2799E-03
            4908            5074     19.3382E-03     19.6832E-03
            4907            5074     19.3382E-03     19.6832E-03
            4890            5074     19.3382E-03     19.6832E-03
            4889            5074     19.3382E-03     19.6832E-03
            4891            5075     18.9180E-03     19.1965E-03
            4908            5075     18.9180E-03     19.1965E-03
            4890            5075     18.9180E-03     19.1965E-03
            4909            5075     18.9180E-03     19.1965E-03
            4909            5076     18.3471E-03     18.5327E-03
            4892            5076     18.3471E-03     18.5327E-03
            4891            5076     18.3471E-03     18.5327E-03
            4910            5076     18.3471E-03     18.5327E-03
            4910            5077     17.5613E-03     17.6789E-03
            4911            5077     17.5613E-03     17.6789E-03
            4892            5077     17.5613E-03     17.6789E-03
            4893            5077     17.5613E-03     17.6789E-03
            4894            5078     16.6500E-03     16.7133E-03
            4911            5078     16.6500E-03     16.7133E-03
            4893            5078     16.6500E-03     16.7133E-03
            4912            5078     16.6500E-03     16.7133E-03
            4912            5079     15.6517E-03     15.6867E-03
            4895            5079     15.6517E-03     15.6867E-03
            4894            5079     15.6517E-03     15.6867E-03
            4913            5079     15.6517E-03     15.6867E-03
            4913            5080     14.6253E-03     14.6387E-03
            4914            5080     14.6253E-03     14.6387E-03
            4896            5080     14.6253E-03     14.6387E-03
            4895            5080     14.6253E-03     14.6387E-03
            4897            5081     13.5773E-03     13.5837E-03
            4914            5081     13.5773E-03     13.5837E-03
            4915            5081     13.5773E-03     13.5837E-03
            4896            5081     13.5773E-03     13.5837E-03
            4897            5082     12.5273E-03     12.5353E-03
            4915            5082     12.5273E-03     12.5353E-03
            4916            5082     12.5273E-03     12.5353E-03
            4898            5082     12.5273E-03     12.5353E-03
            4917            5083     11.4659E-03     11.4949E-03
            4898            5083     11.4659E-03     11.4949E-03
            4899            5083     11.4659E-03     11.4949E-03
            4916            5083     11.4659E-03     11.4949E-03
            4900            5084     10.3933E-03     10.4651E-03
            4899            5084     10.3933E-03     10.4651E-03
            4918            5084     10.3933E-03     10.4651E-03
            4917            5084     10.3933E-03     10.4651E-03
            4901            5085     9.29938E-03     9.46241E-03
            4919            5085     9.29938E-03     9.46241E-03
            4918            5085     9.29938E-03     9.46241E-03
            4900            5085     9.29938E-03     9.46241E-03
            4919            5086     8.25811E-03     8.51059E-03
            4920            5086     8.25811E-03     8.51059E-03
            4901            5086     8.25811E-03     8.51059E-03
            4902            5086     8.25811E-03     8.51059E-03
            4920            5087     7.46470E-03     7.67917E-03
            4903            5087     7.46470E-03     7.67917E-03
            4921            5087     7.46470E-03     7.67917E-03
            4902            5087     7.46470E-03     7.67917E-03
            4922            5088     7.18894E-03     7.31218E-03
            4921            5088     7.18894E-03     7.31218E-03
            4904            5088     7.18894E-03     7.31218E-03
            4903            5088     7.18894E-03     7.31218E-03
            4905            5089     19.2914E-03     19.2033E-03
            4923            5089     19.2914E-03     19.2033E-03
            4906            5089     19.2914E-03     19.2033E-03
            4924            5089     19.2914E-03     19.2033E-03
            4906            5090     18.1214E-03     18.3104E-03
            4924            5090     18.1214E-03     18.3104E-03
            4907            5090     18.1214E-03     18.3104E-03
            4925            5090     18.1214E-03     18.3104E-03
            4925            5091     18.1905E-03     18.3251E-03
            4907            5091     18.1905E-03     18.3251E-03
            4908            5091     18.1905E-03     18.3251E-03
            4926            5091     18.1905E-03     18.3251E-03
            4908            5092     18.2609E-03     18.2463E-03
            4909            5092     18.2609E-03     18.2463E-03
            4926            5092     18.2609E-03     18.2463E-03
            4927            5092     18.2609E-03     18.2463E-03
            4928            5093     17.9189E-03     17.7948E-03
            4927            5093     17.9189E-03     17.7948E-03
            4910            5093     17.9189E-03     17.7948E-03
            4909            5093     17.9189E-03     17.7948E-03
            4910            5094     17.2934E-03     17.1045E-03
            4929            5094     17.2934E-03     17.1045E-03
            4928            5094     17.2934E-03     17.1045E-03
            4911            5094     17.2934E-03     17.1045E-03
            4912            5095     16.4790E-03     16.2556E-03
            4930            5095     16.4790E-03     16.2556E-03
            4929            5095     16.4790E-03     16.2556E-03
            4911            5095     16.4790E-03     16.2556E-03
            4930            5096     15.5643E-03     15.3208E-03
            4912            5096     15.5643E-03     15.3208E-03
            4913            5096     15.5643E-03     15.3208E-03
            4931            5096     15.5643E-03     15.3208E-03
            4932            5097     14.5912E-03     14.3414E-03
            4914            5097     14.5912E-03     14.3414E-03
            4913            5097     14.5912E-03     14.3414E-03
            4931            5097     14.5912E-03     14.3414E-03
            4914            5098     13.5943E-03     13.3430E-03
            4933            5098     13.5943E-03     13.3430E-03
            4915            5098     13.5943E-03     13.3430E-03
            4932            5098     13.5943E-03     13.3430E-03
            4915            5099     12.5806E-03     12.3370E-03
            4934            5099     12.5806E-03     12.3370E-03
            4916            5099     12.5806E-03     12.3370E-03
            4933            5099     12.5806E-03     12.3370E-03
            4917            5100     11.5522E-03     11.3298E-03
            4934            5100     11.5522E-03     11.3298E-03
            4935            5100     11.5522E-03     11.3298E-03
            4916            5100     11.5522E-03     11.3298E-03
            4918            5101     10.5016E-03     10.3283E-03
            4935            5101     10.5016E-03     10.3283E-03
            4917            5101     10.5016E-03     10.3283E-03
            4936            5101     10.5016E-03     10.3283E-03
            4937            5102     9.41382E-03     9.34130E-03
            4936            5102     9.41382E-03     9.34130E-03
            4918            5102     9.41382E-03     9.34130E-03
            4919            5102     9.41382E-03     9.34130E-03
            4919            5103     8.29851E-03     8.44051E-03
            4937            5103     8.29851E-03     8.44051E-03
            4938            5103     8.29851E-03     8.44051E-03
            4920            5103     8.29851E-03     8.44051E-03
            4921            5104     7.43288E-03     7.69874E-03
            4938            5104     7.43288E-03     7.69874E-03
            4939            5104     7.43288E-03     7.69874E-03
            4920            5104     7.43288E-03     7.69874E-03
            4922            5105     7.24499E-03     7.31149E-03
            4940            5105     7.24499E-03     7.31149E-03
            4921            5105     7.24499E-03     7.31149E-03
            4939            5105     7.24499E-03     7.31149E-03
            4924            5106     16.7790E-03     16.6096E-03
            4941            5106     16.7790E-03     16.6096E-03
            4923            5106     16.7790E-03     16.6096E-03
            4942            5106     16.7790E-03     16.6096E-03
            4925            5107     16.4005E-03     16.3120E-03
            4942            5107     16.4005E-03     16.3120E-03
            4943            5107     16.4005E-03     16.3120E-03
            4924            5107     16.4005E-03     16.3120E-03
            4925            5108     17.2871E-03     16.9693E-03
            4944            5108     17.2871E-03     16.9693E-03
            4943            5108     17.2871E-03     16.9693E-03
            4926            5108     17.2871E-03     16.9693E-03
            4927            5109     17.5444E-03     17.0863E-03
            4926            5109     17.5444E-03     17.0863E-03
            4944            5109     17.5444E-03     17.0863E-03
            4945            5109     17.5444E-03     17.0863E-03
            4946            5110     17.3270E-03     16.8158E-03
            4928            5110     17.3270E-03     16.8158E-03
            4945            5110     17.3270E-03     16.8158E-03
            4927            5110     17.3270E-03     16.8158E-03
            4929            5111     16.8104E-03     16.2758E-03
            4928            5111     16.8104E-03     16.2758E-03
            4947            5111     16.8104E-03     16.2758E-03
            4946            5111     16.8104E-03     16.2758E-03
            4947            5112     16.0984E-03     15.5644E-03
            4930            5112     16.0984E-03     15.5644E-03
            4929            5112     16.0984E-03     15.5644E-03
            4948            5112     16.0984E-03     15.5644E-03
            4949            5113     15.2767E-03     14.7509E-03
            4948            5113     15.2767E-03     14.7509E-03
            4931            5113     15.2767E-03     14.7509E-03
            4930            5113     15.2767E-03     14.7509E-03
            4949            5114     14.3904E-03     13.8748E-03
            4950            5114     14.3904E-03     13.8748E-03
            4931            5114     14.3904E-03     13.8748E-03
            4932            5114     14.3904E-03     13.8748E-03
            4933            5115     13.4684E-03     12.9653E-03
            4932            5115     13.4684E-03     12.9653E-03
            4951            5115     13.4684E-03     12.9653E-03
            4950            5115     13.4684E-03     12.9653E-03
            4951            5116     12.5252E-03     12.0358E-03
            4934            5116     12.5252E-03     12.0358E-03
            4933            5116     12.5252E-03     12.0358E-03
            4952            5116     12.5252E-03     12.0358E-03
            4953            5117     11.5682E-03     11.0973E-03
            4934            5117     11.5682E-03     11.0973E-03
            4935            5117     11.5682E-03     11.0973E-03
            4952            5117     11.5682E-03     11.0973E-03
            4953            5118     10.5873E-03     10.1572E-03
            4954            5118     10.5873E-03     10.1572E-03
            4935            5118     10.5873E-03     10.1572E-03
            4936            5118     10.5873E-03     10.1572E-03
            4937            5119     9.58582E-03     9.23697E-03
            4955            5119     9.58582E-03     9.23697E-03
            4954            5119     9.58582E-03     9.23697E-03
            4936            5119     9.58582E-03     9.23697E-03
            4955            5120     8.52919E-03     8.39400E-03
            4937            5120     8.52919E-03     8.39400E-03
            4938            5120     8.52919E-03     8.39400E-03
            4956            5120     8.52919E-03     8.39400E-03
            4956            5121     7.50601E-03     7.83498E-03
            4957            5121     7.50601E-03     7.83498E-03
            4939            5121     7.50601E-03     7.83498E-03
            4938            5121     7.50601E-03     7.83498E-03
            4957            5122     7.37042E-03     7.74468E-03
            4958            5122     7.37042E-03     7.74468E-03
            4940            5122     7.37042E-03     7.74468E-03
            4939            5122     7.37042E-03     7.74468E-03
            4941            5123     14.6924E-03     14.0713E-03
            4960            5123     14.6924E-03     14.0713E-03
            4959            5123     14.6924E-03     14.0713E-03
            4942            5123     14.6924E-03     14.0713E-03
            4961            5124     15.5032E-03     14.5743E-03
            4943            5124     15.5032E-03     14.5743E-03
            4942            5124     15.5032E-03     14.5743E-03
            4960            5124     15.5032E-03     14.5743E-03
            4944            5125     16.4706E-03     15.4376E-03
            4943            5125     16.4706E-03     15.4376E-03
            4962            5125     16.4706E-03     15.4376E-03
            4961            5125     16.4706E-03     15.4376E-03
            4963            5126     16.6709E-03     15.6760E-03
            4944            5126     16.6709E-03     15.6760E-03
            4962            5126     16.6709E-03     15.6760E-03
            4945            5126     16.6709E-03     15.6760E-03
            4963            5127     16.5306E-03     15.5804E-03
            4964            5127     16.5306E-03     15.5804E-03
            4946            5127     16.5306E-03     15.5804E-03
            4945            5127     16.5306E-03     15.5804E-03
            4964            5128     16.1066E-03     15.2150E-03
            4947            5128     16.1066E-03     15.2150E-03
            4946            5128     16.1066E-03     15.2150E-03
            4965            5128     16.1066E-03     15.2150E-03
            4947            5129     15.5257E-03     14.6823E-03
            4965            5129     15.5257E-03     14.6823E-03
            4948            5129     15.5257E-03     14.6823E-03
            4966            5129     15.5257E-03     14.6823E-03
            4966            5130     14.8258E-03     14.0240E-03
            4948            5130     14.8258E-03     14.0240E-03
            4967            5130     14.8258E-03     14.0240E-03
            4949            5130     14.8258E-03     14.0240E-03
            4967            5131     14.0552E-03     13.2896E-03
            4968            5131     14.0552E-03     13.2896E-03
            4950            5131     14.0552E-03     13.2896E-03
            4949            5131     14.0552E-03     13.2896E-03
            4968            5132     13.2369E-03     12.4994E-03
            4950            5132     13.2369E-03     12.4994E-03
            4969            5132     13.2369E-03     12.4994E-03
            4951            5132     13.2369E-03     12.4994E-03
            4970            5133     12.3903E-03     11.6790E-03
            4952            5133     12.3903E-03     11.6790E-03
            4969            5133     12.3903E-03     11.6790E-03
            4951            5133     12.3903E-03     11.6790E-03
            4971            5134     11.5278E-03     10.8382E-03
            4970            5134     11.5278E-03     10.8382E-03
            4953            5134     11.5278E-03     10.8382E-03
            4952            5134     11.5278E-03     10.8382E-03
            4971            5135     10.6609E-03     9.99802E-03
            4953            5135     10.6609E-03     9.99802E-03
            4972            5135     10.6609E-03     9.99802E-03
            4954            5135     10.6609E-03     9.99802E-03
            4954            5136     9.79454E-03     9.17715E-03
            4973            5136     9.79454E-03     9.17715E-03
            4955            5136     9.79454E-03     9.17715E-03
            4972            5136     9.79454E-03     9.17715E-03
            4956            5137     8.94544E-03     8.43949E-03
            4974            5137     8.94544E-03     8.43949E-03
            4955            5137     8.94544E-03     8.43949E-03
            4973            5137     8.94544E-03     8.43949E-03
            4957            5138     8.06243E-03     7.96140E-03
            4974            5138     8.06243E-03     7.96140E-03
            4956            5138     8.06243E-03     7.96140E-03
            4975            5138     8.06243E-03     7.96140E-03
            4958            5139     7.53382E-03     8.36188E-03
            4975            5139     7.53382E-03     8.36188E-03
            4957            5139     7.53382E-03     8.36188E-03
            4976            5139     7.53382E-03     8.36188E-03
            4978            5140     11.8523E-03     12.9332E-03
            4977            5140     11.8523E-03     12.9332E-03
            4960            5140     11.8523E-03     12.9332E-03
            4959            5140     11.8523E-03     12.9332E-03
            4960            5141     10.0876E-03     10.6003E-03
            4978            5141     10.0876E-03     10.6003E-03
            4979            5141     10.0876E-03     10.6003E-03
            4961            5141     10.0876E-03     10.6003E-03
            4962            5142     9.88369E-03     10.3008E-03
            4961            5142     9.88369E-03     10.3008E-03
            4979            5142     9.88369E-03     10.3008E-03
            4980            5142     9.88369E-03     10.3008E-03
            4963            5143     9.71288E-03     10.2196E-03
            4980            5143     9.71288E-03     10.2196E-03
            4981            5143     9.71288E-03     10.2196E-03
            4962            5143     9.71288E-03     10.2196E-03
            4963            5144     9.56540E-03     10.1008E-03
            4964            5144     9.56540E-03     10.1008E-03
            4982            5144     9.56540E-03     10.1008E-03
            4981            5144     9.56540E-03     10.1008E-03
            4983            5145     9.29691E-03     9.88266E-03
            4964            5145     9.29691E-03     9.88266E-03
            4982            5145     9.29691E-03     9.88266E-03
            4965            5145     9.29691E-03     9.88266E-03
            4984            5146     8.94463E-03     9.55808E-03
            4966            5146     8.94463E-03     9.55808E-03
            4965            5146     8.94463E-03     9.55808E-03
            4983            5146     8.94463E-03     9.55808E-03
            4984            5147     8.53164E-03     9.17312E-03
            4967            5147     8.53164E-03     9.17312E-03
            4985            5147     8.53164E-03     9.17312E-03
            4966            5147     8.53164E-03     9.17312E-03
            4986            5148     8.07735E-03     8.73105E-03
            4968            5148     8.07735E-03     8.73105E-03
            4967            5148     8.07735E-03     8.73105E-03
            4985            5148     8.07735E-03     8.73105E-03
            4969            5149     7.59772E-03     8.26209E-03
            4986            5149     7.59772E-03     8.26209E-03
            4987            5149     7.59772E-03     8.26209E-03
            4968            5149     7.59772E-03     8.26209E-03
            4988            5150     7.10311E-03     7.76599E-03
            4987            5150     7.10311E-03     7.76599E-03
            4969            5150     7.10311E-03     7.76599E-03
            4970            5150     7.10311E-03     7.76599E-03
            4971            5151     6.60506E-03     7.26342E-03
            4988            5151     6.60506E-03     7.26342E-03
            4989            5151     6.60506E-03     7.26342E-03
            4970            5151     6.60506E-03     7.26342E-03
            4989            5152     6.11780E-03     6.75632E-03
            4971            5152     6.11780E-03     6.75632E-03
            4990            5152     6.11780E-03     6.75632E-03
            4972            5152     6.11780E-03     6.75632E-03
            4991            5153     5.67617E-03     6.28432E-03
            4973            5153     5.67617E-03     6.28432E-03
            4972            5153     5.67617E-03     6.28432E-03
            4990            5153     5.67617E-03     6.28432E-03
            4974            5154     5.34670E-03     5.89832E-03
            4991            5154     5.34670E-03     5.89832E-03
            4973            5154     5.34670E-03     5.89832E-03
            4992            5154     5.34670E-03     5.89832E-03
            4975            5155     5.08598E-03     5.80725E-03
            4992            5155     5.08598E-03     5.80725E-03
            4974            5155     5.08598E-03     5.80725E-03
            4993            5155     5.08598E-03     5.80725E-03
            4975            5156     5.21445E-03     6.91429E-03
            4976            5156     5.21445E-03     6.91429E-03
            4994            5156     5.21445E-03     6.91429E-03
            4993            5156     5.21445E-03     6.91429E-03
            4996            5157     9.76045E-03     11.2500E-03
            4977            5157     9.76045E-03     11.2500E-03
            4995            5157     9.76045E-03     11.2500E-03
            4978            5157     9.76045E-03     11.2500E-03
            4997            5158     5.12670E-03     6.93408E-03
            4978            5158     5.12670E-03     6.93408E-03
            4996            5158     5.12670E-03     6.93408E-03
            4979            5158     5.12670E-03     6.93408E-03
            4997            5159     3.90004E-03     5.67748E-03
            4998            5159     3.90004E-03     5.67748E-03
            4979            5159     3.90004E-03     5.67748E-03
            4980            5159     3.90004E-03     5.67748E-03
            4998            5160     3.59027E-03     5.30975E-03
            4999            5160     3.59027E-03     5.30975E-03
            4980            5160     3.59027E-03     5.30975E-03
            4981            5160     3.59027E-03     5.30975E-03
            5000            5161     3.37762E-03     5.07505E-03
            4981            5161     3.37762E-03     5.07505E-03
            4982            5161     3.37762E-03     5.07505E-03
            4999            5161     3.37762E-03     5.07505E-03
            4983            5162     3.19248E-03     4.88531E-03
            5001            5162     3.19248E-03     4.88531E-03
            5000            5162     3.19248E-03     4.88531E-03
            4982            5162     3.19248E-03     4.88531E-03
            5002            5163     2.99299E-03     4.67566E-03
            4983            5163     2.99299E-03     4.67566E-03
            5001            5163     2.99299E-03     4.67566E-03
            4984            5163     2.99299E-03     4.67566E-03
            4984            5164     2.78675E-03     4.46363E-03
            5003            5164     2.78675E-03     4.46363E-03
            5002            5164     2.78675E-03     4.46363E-03
            4985            5164     2.78675E-03     4.46363E-03
            5004            5165     2.58340E-03     4.24303E-03
            4985            5165     2.58340E-03     4.24303E-03
            5003            5165     2.58340E-03     4.24303E-03
            4986            5165     2.58340E-03     4.24303E-03
            4986            5166     2.37994E-03     4.02446E-03
            4987            5166     2.37994E-03     4.02446E-03
            5005            5166     2.37994E-03     4.02446E-03
            5004            5166     2.37994E-03     4.02446E-03
            4988            5167     2.18127E-03     3.80004E-03
            4987            5167     2.18127E-03     3.80004E-03
            5006            5167     2.18127E-03     3.80004E-03
            5005            5167     2.18127E-03     3.80004E-03
            4988            5168     1.98492E-03     3.57616E-03
            5006            5168     1.98492E-03     3.57616E-03
            4989            5168     1.98492E-03     3.57616E-03
            5007            5168     1.98492E-03     3.57616E-03
            4989            5169     1.79957E-03     3.34767E-03
            5008            5169     1.79957E-03     3.34767E-03
            4990            5169     1.79957E-03     3.34767E-03
            5007            5169     1.79957E-03     3.34767E-03
            4991            5170     1.64994E-03     3.14240E-03
            5008            5170     1.64994E-03     3.14240E-03
            5009            5170     1.64994E-03     3.14240E-03
            4990            5170     1.64994E-03     3.14240E-03
            5010            5171     1.63531E-03     3.03799E-03
            5009            5171     1.63531E-03     3.03799E-03
            4991            5171     1.63531E-03     3.03799E-03
            4992            5171     1.63531E-03     3.03799E-03
            4992            5172     1.86609E-03     3.25799E-03
            5011            5172     1.86609E-03     3.25799E-03
            4993            5172     1.86609E-03     3.25799E-03
            5010            5172     1.86609E-03     3.25799E-03
            4994            5173     3.31876E-03     4.66888E-03
            4993            5173     3.31876E-03     4.66888E-03
            5012            5173     3.31876E-03     4.66888E-03
            5011            5173     3.31876E-03     4.66888E-03
            4995            5174     8.60992E-03     8.28228E-03
            5013            5174     8.60992E-03     8.28228E-03
            4996            5174     8.60992E-03     8.28228E-03
            5014            5174     8.60992E-03     8.28228E-03
            5015            5175     5.36416E-03     5.82242E-03
            4996            5175     5.36416E-03     5.82242E-03
            4997            5175     5.36416E-03     5.82242E-03
            5014            5175     5.36416E-03     5.82242E-03
            4997            5176     4.51943E-03     5.18106E-03
            5015            5176     4.51943E-03     5.18106E-03
            5016            5176     4.51943E-03     5.18106E-03
            4998            5176     4.51943E-03     5.18106E-03
            4999            5177     4.29179E-03     4.90625E-03
            4998            5177     4.29179E-03     4.90625E-03
            5016            5177     4.29179E-03     4.90625E-03
            5017            5177     4.29179E-03     4.90625E-03
            5017            5178     4.03520E-03     4.64925E-03
            4999            5178     4.03520E-03     4.64925E-03
            5018            5178     4.03520E-03     4.64925E-03
            5000            5178     4.03520E-03     4.64925E-03
            5000            5179     3.80533E-03     4.41394E-03
            5018            5179     3.80533E-03     4.41394E-03
            5001            5179     3.80533E-03     4.41394E-03
            5019            5179     3.80533E-03     4.41394E-03
            5020            5180     3.58370E-03     4.19310E-03
            5001            5180     3.58370E-03     4.19310E-03
            5019            5180     3.58370E-03     4.19310E-03
            5002            5180     3.58370E-03     4.19310E-03
            5003            5181     3.37010E-03     3.97286E-03
            5021            5181     3.37010E-03     3.97286E-03
            5002            5181     3.37010E-03     3.97286E-03
            5020            5181     3.37010E-03     3.97286E-03
            5004            5182     3.16094E-03     3.76066E-03
            5003            5182     3.16094E-03     3.76066E-03
            5022            5182     3.16094E-03     3.76066E-03
            5021            5182     3.16094E-03     3.76066E-03
            5022            5183     2.95658E-03     3.54723E-03
            5005            5183     2.95658E-03     3.54723E-03
            5004            5183     2.95658E-03     3.54723E-03
            5023            5183     2.95658E-03     3.54723E-03
            5005            5184     2.75367E-03     3.33759E-03
            5023            5184     2.75367E-03     3.33759E-03
            5006            5184     2.75367E-03     3.33759E-03
            5024            5184     2.75367E-03     3.33759E-03
            5006            5185     2.55065E-03     3.12201E-03
            5025            5185     2.55065E-03     3.12201E-03
            5007            5185     2.55065E-03     3.12201E-03
            5024            5185     2.55065E-03     3.12201E-03
            5007            5186     2.34589E-03     2.90411E-03
            5025            5186     2.34589E-03     2.90411E-03
            5008            5186     2.34589E-03     2.90411E-03
            5026            5186     2.34589E-03     2.90411E-03
            5027            5187     2.14808E-03     2.69486E-03
            5008            5187     2.14808E-03     2.69486E-03
            5026            5187     2.14808E-03     2.69486E-03
            5009            5187     2.14808E-03     2.69486E-03
            5010            5188     1.99144E-03     2.54489E-03
            5009            5188     1.99144E-03     2.54489E-03
            5028            5188     1.99144E-03     2.54489E-03
            5027            5188     1.99144E-03     2.54489E-03
            5011            5189     2.39647E-03     2.75829E-03
            5028            5189     2.39647E-03     2.75829E-03
            5010            5189     2.39647E-03     2.75829E-03
            5029            5189     2.39647E-03     2.75829E-03
            5030            5190     4.00362E-03     3.59538E-03
            5029            5190     4.00362E-03     3.59538E-03
            5011            5190     4.00362E-03     3.59538E-03
            5012            5190     4.00362E-03     3.59538E-03
            5013            5191     6.47040E-03     6.07290E-03
            5032            5191     6.47040E-03     6.07290E-03
            5031            5191     6.47040E-03     6.07290E-03
            5014            5191     6.47040E-03     6.07290E-03
            5014            5192     4.78926E-03     4.37484E-03
            5032            5192     4.78926E-03     4.37484E-03
            5033            5192     4.78926E-03     4.37484E-03
            5015            5192     4.78926E-03     4.37484E-03
            5015            5193     5.21475E-03     4.70675E-03
            5016            5193     5.21475E-03     4.70675E-03
            5034            5193     5.21475E-03     4.70675E-03
            5033            5193     5.21475E-03     4.70675E-03
            5016            5194     4.90895E-03     4.44171E-03
            5035            5194     4.90895E-03     4.44171E-03
            5034            5194     4.90895E-03     4.44171E-03
            5017            5194     4.90895E-03     4.44171E-03
            5017            5195     4.65833E-03     4.19966E-03
            5035            5195     4.65833E-03     4.19966E-03
            5018            5195     4.65833E-03     4.19966E-03
            5036            5195     4.65833E-03     4.19966E-03
            5036            5196     4.39411E-03     3.93606E-03
            5019            5196     4.39411E-03     3.93606E-03
            5037            5196     4.39411E-03     3.93606E-03
            5018            5196     4.39411E-03     3.93606E-03
            5037            5197     4.16198E-03     3.70669E-03
            5038            5197     4.16198E-03     3.70669E-03
            5020            5197     4.16198E-03     3.70669E-03
            5019            5197     4.16198E-03     3.70669E-03
            5039            5198     3.94439E-03     3.49754E-03
            5038            5198     3.94439E-03     3.49754E-03
            5020            5198     3.94439E-03     3.49754E-03
            5021            5198     3.94439E-03     3.49754E-03
            5021            5199     3.73668E-03     3.29582E-03
            5040            5199     3.73668E-03     3.29582E-03
            5039            5199     3.73668E-03     3.29582E-03
            5022            5199     3.73668E-03     3.29582E-03
            5022            5200     3.53340E-03     3.10254E-03
            5041            5200     3.53340E-03     3.10254E-03
            5040            5200     3.53340E-03     3.10254E-03
            5023            5200     3.53340E-03     3.10254E-03
            5023            5201     3.33506E-03     2.91321E-03
            5041            5201     3.33506E-03     2.91321E-03
            5042            5201     3.33506E-03     2.91321E-03
            5024            5201     3.33506E-03     2.91321E-03
            5025            5202     3.13908E-03     2.72862E-03
            5042            5202     3.13908E-03     2.72862E-03
            5024            5202     3.13908E-03     2.72862E-03
            5043            5202     3.13908E-03     2.72862E-03
            5025            5203     2.94614E-03     2.55033E-03
            5044            5203     2.94614E-03     2.55033E-03
            5026            5203     2.94614E-03     2.55033E-03
            5043            5203     2.94614E-03     2.55033E-03
            5045            5204     2.75826E-03     2.38080E-03
            5027            5204     2.75826E-03     2.38080E-03
            5026            5204     2.75826E-03     2.38080E-03
            5044            5204     2.75826E-03     2.38080E-03
            5027            5205     2.61858E-03     2.28845E-03
            5028            5205     2.61858E-03     2.28845E-03
            5046            5205     2.61858E-03     2.28845E-03
            5045            5205     2.61858E-03     2.28845E-03
            5028            5206     2.74441E-03     2.45522E-03
            5046            5206     2.74441E-03     2.45522E-03
            5047            5206     2.74441E-03     2.45522E-03
            5029            5206     2.74441E-03     2.45522E-03
            5048            5207     3.94191E-03     3.37949E-03
            5047            5207     3.94191E-03     3.37949E-03
            5029            5207     3.94191E-03     3.37949E-03
            5030            5207     3.94191E-03     3.37949E-03
            5049            5208     5.39493E-03     5.45530E-03
            5031            5208     5.39493E-03     5.45530E-03
            5050            5208     5.39493E-03     5.45530E-03
            5032            5208     5.39493E-03     5.45530E-03
            5050            5209     4.29893E-03     3.09448E-03
            5051            5209     4.29893E-03     3.09448E-03
            5032            5209     4.29893E-03     3.09448E-03
            5033            5209     4.29893E-03     3.09448E-03
            5034            5210     5.28682E-03     3.68238E-03
            5051            5210     5.28682E-03     3.68238E-03
            5052            5210     5.28682E-03     3.68238E-03
            5033            5210     5.28682E-03     3.68238E-03
            5052            5211     5.31955E-03     3.74690E-03
            5034            5211     5.31955E-03     3.74690E-03
            5053            5211     5.31955E-03     3.74690E-03
            5035            5211     5.31955E-03     3.74690E-03
            5053            5212     5.14377E-03     3.60576E-03
            5035            5212     5.14377E-03     3.60576E-03
            5036            5212     5.14377E-03     3.60576E-03
            5054            5212     5.14377E-03     3.60576E-03
            5037            5213     4.93430E-03     3.41595E-03
            5054            5213     4.93430E-03     3.41595E-03
            5055            5213     4.93430E-03     3.41595E-03
            5036            5213     4.93430E-03     3.41595E-03
            5055            5214     4.71667E-03     3.22843E-03
            5037            5214     4.71667E-03     3.22843E-03
            5056            5214     4.71667E-03     3.22843E-03
            5038            5214     4.71667E-03     3.22843E-03
            5039            5215     4.51050E-03     3.04591E-03
            5038            5215     4.51050E-03     3.04591E-03
            5057            5215     4.51050E-03     3.04591E-03
            5056            5215     4.51050E-03     3.04591E-03
            5057            5216     4.30611E-03     2.87250E-03
            5058            5216     4.30611E-03     2.87250E-03
            5040            5216     4.30611E-03     2.87250E-03
            5039            5216     4.30611E-03     2.87250E-03
            5040            5217     4.10792E-03     2.70731E-03
            5059            5217     4.10792E-03     2.70731E-03
            5041            5217     4.10792E-03     2.70731E-03
            5058            5217     4.10792E-03     2.70731E-03
            5059            5218     3.91137E-03     2.55128E-03
            5060            5218     3.91137E-03     2.55128E-03
            5041            5218     3.91137E-03     2.55128E-03
            5042            5218     3.91137E-03     2.55128E-03
            5060            5219     3.72473E-03     2.41472E-03
            5042            5219     3.72473E-03     2.41472E-03
            5061            5219     3.72473E-03     2.41472E-03
            5043            5219     3.72473E-03     2.41472E-03
            5043            5220     3.54553E-03     2.29849E-03
            5061            5220     3.54553E-03     2.29849E-03
            5062            5220     3.54553E-03     2.29849E-03
            5044            5220     3.54553E-03     2.29849E-03
            5044            5221     3.38357E-03     2.23413E-03
            5045            5221     3.38357E-03     2.23413E-03
            5063            5221     3.38357E-03     2.23413E-03
            5062            5221     3.38357E-03     2.23413E-03
            5045            5222     3.27305E-03     2.27992E-03
            5063            5222     3.27305E-03     2.27992E-03
            5064            5222     3.27305E-03     2.27992E-03
            5046            5222     3.27305E-03     2.27992E-03
            5047            5223     3.06209E-03     2.55347E-03
            5065            5223     3.06209E-03     2.55347E-03
            5064            5223     3.06209E-03     2.55347E-03
            5046            5223     3.06209E-03     2.55347E-03
            5066            5224     3.54429E-03     3.99105E-03
            5065            5224     3.54429E-03     3.99105E-03
            5047            5224     3.54429E-03     3.99105E-03
            5048            5224     3.54429E-03     3.99105E-03
            5175            5310     77.6075E-03     79.4764E-03
            5194            5310     77.6075E-03     79.4764E-03
            5176            5310     77.6075E-03     79.4764E-03
            5193            5310     77.6075E-03     79.4764E-03
            5194            5311     71.6358E-03     73.8345E-03
            5176            5311     71.6358E-03     73.8345E-03
            5177            5311     71.6358E-03     73.8345E-03
            5195            5311     71.6358E-03     73.8345E-03
            5177            5312     68.3599E-03     70.3540E-03
            5196            5312     68.3599E-03     70.3540E-03
            5178            5312     68.3599E-03     70.3540E-03
            5195            5312     68.3599E-03     70.3540E-03
            5197            5313     65.7189E-03     67.6557E-03
            5179            5313     65.7189E-03     67.6557E-03
            5196            5313     65.7189E-03     67.6557E-03
            5178            5313     65.7189E-03     67.6557E-03
            5198            5314     63.0843E-03     64.9853E-03
            5180            5314     63.0843E-03     64.9853E-03
            5197            5314     63.0843E-03     64.9853E-03
            5179            5314     63.0843E-03     64.9853E-03
            5181            5315     60.4564E-03     62.2903E-03
            5199            5315     60.4564E-03     62.2903E-03
            5180            5315     60.4564E-03     62.2903E-03
            5198            5315     60.4564E-03     62.2903E-03
            5182            5316     57.7527E-03     59.4912E-03
            5199            5316     57.7527E-03     59.4912E-03
            5181            5316     57.7527E-03     59.4912E-03
            5200            5316     57.7527E-03     59.4912E-03
            5182            5317     55.0045E-03     56.6373E-03
            5183            5317     55.0045E-03     56.6373E-03
            5200            5317     55.0045E-03     56.6373E-03
            5201            5317     55.0045E-03     56.6373E-03
            5201            5318     52.2117E-03     53.7305E-03
            5183            5318     52.2117E-03     53.7305E-03
            5184            5318     52.2117E-03     53.7305E-03
            5202            5318     52.2117E-03     53.7305E-03
            5203            5319     49.4146E-03     50.8190E-03
            5202            5319     49.4146E-03     50.8190E-03
            5184            5319     49.4146E-03     50.8190E-03
            5185            5319     49.4146E-03     50.8190E-03
            5185            5320     46.6148E-03     47.9051E-03
            5204            5320     46.6148E-03     47.9051E-03
            5203            5320     46.6148E-03     47.9051E-03
            5186            5320     46.6148E-03     47.9051E-03
            5204            5321     43.8807E-03     45.0562E-03
            5187            5321     43.8807E-03     45.0562E-03
            5205            5321     43.8807E-03     45.0562E-03
            5186            5321     43.8807E-03     45.0562E-03
            5187            5322     41.1887E-03     42.2550E-03
            5188            5322     41.1887E-03     42.2550E-03
            5205            5322     41.1887E-03     42.2550E-03
            5206            5322     41.1887E-03     42.2550E-03
            5189            5323     38.7479E-03     39.7066E-03
            5188            5323     38.7479E-03     39.7066E-03
            5206            5323     38.7479E-03     39.7066E-03
            5207            5323     38.7479E-03     39.7066E-03
            5189            5324     36.4378E-03     37.3148E-03
            5208            5324     36.4378E-03     37.3148E-03
            5190            5324     36.4378E-03     37.3148E-03
            5207            5324     36.4378E-03     37.3148E-03
            5191            5325     35.2755E-03     36.0944E-03
            5208            5325     35.2755E-03     36.0944E-03
            5190            5325     35.2755E-03     36.0944E-03
            5209            5325     35.2755E-03     36.0944E-03
            5192            5326     34.7121E-03     35.9521E-03
            5210            5326     34.7121E-03     35.9521E-03
            5209            5326     34.7121E-03     35.9521E-03
            5191            5326     34.7121E-03     35.9521E-03
            5194            5327     79.6343E-03     80.4536E-03
            5193            5327     79.6343E-03     80.4536E-03
            5211            5327     79.6343E-03     80.4536E-03
            5212            5327     79.6343E-03     80.4536E-03
            5194            5328     74.6434E-03     76.5568E-03
            5195            5328     74.6434E-03     76.5568E-03
            5213            5328     74.6434E-03     76.5568E-03
            5212            5328     74.6434E-03     76.5568E-03
            5196            5329     70.2950E-03     72.3305E-03
            5213            5329     70.2950E-03     72.3305E-03
            5214            5329     70.2950E-03     72.3305E-03
            5195            5329     70.2950E-03     72.3305E-03
            5196            5330     67.1337E-03     68.9089E-03
            5197            5330     67.1337E-03     68.9089E-03
            5214            5330     67.1337E-03     68.9089E-03
            5215            5330     67.1337E-03     68.9089E-03
            5198            5331     64.0307E-03     65.7057E-03
            5216            5331     64.0307E-03     65.7057E-03
            5215            5331     64.0307E-03     65.7057E-03
            5197            5331     64.0307E-03     65.7057E-03
            5199            5332     61.0341E-03     62.6177E-03
            5216            5332     61.0341E-03     62.6177E-03
            5217            5332     61.0341E-03     62.6177E-03
            5198            5332     61.0341E-03     62.6177E-03
            5217            5333     58.0252E-03     59.5496E-03
            5218            5333     58.0252E-03     59.5496E-03
            5200            5333     58.0252E-03     59.5496E-03
            5199            5333     58.0252E-03     59.5496E-03
            5200            5334     55.0236E-03     56.4898E-03
            5219            5334     55.0236E-03     56.4898E-03
            5218            5334     55.0236E-03     56.4898E-03
            5201            5334     55.0236E-03     56.4898E-03
            5201            5335     52.0326E-03     53.4449E-03
            5202            5335     52.0326E-03     53.4449E-03
            5219            5335     52.0326E-03     53.4449E-03
            5220            5335     52.0326E-03     53.4449E-03
            5203            5336     49.0593E-03     50.4114E-03
            5220            5336     49.0593E-03     50.4114E-03
            5221            5336     49.0593E-03     50.4114E-03
            5202            5336     49.0593E-03     50.4114E-03
            5221            5337     46.1310E-03     47.4205E-03
            5203            5337     46.1310E-03     47.4205E-03
            5204            5337     46.1310E-03     47.4205E-03
            5222            5337     46.1310E-03     47.4205E-03
            5204            5338     43.2513E-03     44.4706E-03
            5205            5338     43.2513E-03     44.4706E-03
            5222            5338     43.2513E-03     44.4706E-03
            5223            5338     43.2513E-03     44.4706E-03
            5205            5339     40.4828E-03     41.6299E-03
            5206            5339     40.4828E-03     41.6299E-03
            5223            5339     40.4828E-03     41.6299E-03
            5224            5339     40.4828E-03     41.6299E-03
            5224            5340     37.8320E-03     38.9295E-03
            5225            5340     37.8320E-03     38.9295E-03
            5206            5340     37.8320E-03     38.9295E-03
            5207            5340     37.8320E-03     38.9295E-03
            5207            5341     35.3901E-03     36.5378E-03
            5226            5341     35.3901E-03     36.5378E-03
            5208            5341     35.3901E-03     36.5378E-03
            5225            5341     35.3901E-03     36.5378E-03
            5209            5342     33.2314E-03     34.7441E-03
            5227            5342     33.2314E-03     34.7441E-03
            5226            5342     33.2314E-03     34.7441E-03
            5208            5342     33.2314E-03     34.7441E-03
            5227            5343     29.0696E-03     31.3739E-03
            5209            5343     29.0696E-03     31.3739E-03
            5210            5343     29.0696E-03     31.3739E-03
            5228            5343     29.0696E-03     31.3739E-03
            5211            5344     79.1863E-03     81.0583E-03
            5212            5344     79.1863E-03     81.0583E-03
            5229            5344     79.1863E-03     81.0583E-03
            5230            5344     79.1863E-03     81.0583E-03
            5230            5345     75.8781E-03     77.4356E-03
            5213            5345     75.8781E-03     77.4356E-03
            5212            5345     75.8781E-03     77.4356E-03
            5231            5345     75.8781E-03     77.4356E-03
            5231            5346     71.8173E-03     73.3975E-03
            5214            5346     71.8173E-03     73.3975E-03
            5213            5346     71.8173E-03     73.3975E-03
            5232            5346     71.8173E-03     73.3975E-03
            5215            5347     67.9740E-03     69.5247E-03
            5233            5347     67.9740E-03     69.5247E-03
            5232            5347     67.9740E-03     69.5247E-03
            5214            5347     67.9740E-03     69.5247E-03
            5234            5348     64.6493E-03     66.0208E-03
            5215            5348     64.6493E-03     66.0208E-03
            5216            5348     64.6493E-03     66.0208E-03
            5233            5348     64.6493E-03     66.0208E-03
            5234            5349     61.3311E-03     62.6490E-03
            5235            5349     61.3311E-03     62.6490E-03
            5217            5349     61.3311E-03     62.6490E-03
            5216            5349     61.3311E-03     62.6490E-03
            5235            5350     58.1074E-03     59.3921E-03
            5236            5350     58.1074E-03     59.3921E-03
            5218            5350     58.1074E-03     59.3921E-03
            5217            5350     58.1074E-03     59.3921E-03
            5218            5351     54.9071E-03     56.1890E-03
            5237            5351     54.9071E-03     56.1890E-03
            5236            5351     54.9071E-03     56.1890E-03
            5219            5351     54.9071E-03     56.1890E-03
            5220            5352     51.7507E-03     53.0271E-03
            5219            5352     51.7507E-03     53.0271E-03
            5237            5352     51.7507E-03     53.0271E-03
            5238            5352     51.7507E-03     53.0271E-03
            5238            5353     48.6299E-03     49.9062E-03
            5239            5353     48.6299E-03     49.9062E-03
            5220            5353     48.6299E-03     49.9062E-03
            5221            5353     48.6299E-03     49.9062E-03
            5239            5354     45.5577E-03     46.8226E-03
            5240            5354     45.5577E-03     46.8226E-03
            5221            5354     45.5577E-03     46.8226E-03
            5222            5354     45.5577E-03     46.8226E-03
            5240            5355     42.5377E-03     43.7880E-03
            5241            5355     42.5377E-03     43.7880E-03
            5223            5355     42.5377E-03     43.7880E-03
            5222            5355     42.5377E-03     43.7880E-03
            5241            5356     39.6074E-03     40.8383E-03
            5224            5356     39.6074E-03     40.8383E-03
            5223            5356     39.6074E-03     40.8383E-03
            5242            5356     39.6074E-03     40.8383E-03
            5225            5357     36.7092E-03     37.9309E-03
            5224            5357     36.7092E-03     37.9309E-03
            5242            5357     36.7092E-03     37.9309E-03
            5243            5357     36.7092E-03     37.9309E-03
            5244            5358     33.9249E-03     35.2739E-03
            5225            5358     33.9249E-03     35.2739E-03
            5243            5358     33.9249E-03     35.2739E-03
            5226            5358     33.9249E-03     35.2739E-03
            5226            5359     30.2211E-03     31.9817E-03
            5245            5359     30.2211E-03     31.9817E-03
            5227            5359     30.2211E-03     31.9817E-03
            5244            5359     30.2211E-03     31.9817E-03
            5246            5360     24.6976E-03     26.6227E-03
            5245            5360     24.6976E-03     26.6227E-03
            5227            5360     24.6976E-03     26.6227E-03
            5228            5360     24.6976E-03     26.6227E-03
            5248            5361     78.6648E-03     79.2665E-03
            5230            5361     78.6648E-03     79.2665E-03
            5247            5361     78.6648E-03     79.2665E-03
            5229            5361     78.6648E-03     79.2665E-03
            5248            5362     75.4590E-03     76.6352E-03
            5249            5362     75.4590E-03     76.6352E-03
            5230            5362     75.4590E-03     76.6352E-03
            5231            5362     75.4590E-03     76.6352E-03
            5232            5363     71.8280E-03     72.8800E-03
            5250            5363     71.8280E-03     72.8800E-03
            5231            5363     71.8280E-03     72.8800E-03
            5249            5363     71.8280E-03     72.8800E-03
            5250            5364     68.1652E-03     69.1788E-03
            5232            5364     68.1652E-03     69.1788E-03
            5251            5364     68.1652E-03     69.1788E-03
            5233            5364     68.1652E-03     69.1788E-03
            5251            5365     64.6266E-03     65.6150E-03
            5233            5365     64.6266E-03     65.6150E-03
            5252            5365     64.6266E-03     65.6150E-03
            5234            5365     64.6266E-03     65.6150E-03
            5252            5366     61.2287E-03     62.2130E-03
            5253            5366     61.2287E-03     62.2130E-03
            5235            5366     61.2287E-03     62.2130E-03
            5234            5366     61.2287E-03     62.2130E-03
            5254            5367     57.8705E-03     58.8989E-03
            5235            5367     57.8705E-03     58.8989E-03
            5253            5367     57.8705E-03     58.8989E-03
            5236            5367     57.8705E-03     58.8989E-03
            5255            5368     54.5769E-03     55.6470E-03
            5236            5368     54.5769E-03     55.6470E-03
            5254            5368     54.5769E-03     55.6470E-03
            5237            5368     54.5769E-03     55.6470E-03
            5256            5369     51.3086E-03     52.4379E-03
            5255            5369     51.3086E-03     52.4379E-03
            5238            5369     51.3086E-03     52.4379E-03
            5237            5369     51.3086E-03     52.4379E-03
            5239            5370     48.0792E-03     49.2575E-03
            5257            5370     48.0792E-03     49.2575E-03
            5238            5370     48.0792E-03     49.2575E-03
            5256            5370     48.0792E-03     49.2575E-03
            5239            5371     44.8674E-03     46.1000E-03
            5257            5371     44.8674E-03     46.1000E-03
            5240            5371     44.8674E-03     46.1000E-03
            5258            5371     44.8674E-03     46.1000E-03
            5240            5372     41.6972E-03     42.9717E-03
            5258            5372     41.6972E-03     42.9717E-03
            5241            5372     41.6972E-03     42.9717E-03
            5259            5372     41.6972E-03     42.9717E-03
            5242            5373     38.5147E-03     39.8296E-03
            5260            5373     38.5147E-03     39.8296E-03
            5241            5373     38.5147E-03     39.8296E-03
            5259            5373     38.5147E-03     39.8296E-03
            5261            5374     35.3559E-03     36.7097E-03
            5242            5374     35.3559E-03     36.7097E-03
            5243            5374     35.3559E-03     36.7097E-03
            5260            5374     35.3559E-03     36.7097E-03
            5244            5375     31.8721E-03     33.2820E-03
            5261            5375     31.8721E-03     33.2820E-03
            5243            5375     31.8721E-03     33.2820E-03
            5262            5375     31.8721E-03     33.2820E-03
            5262            5376     27.5653E-03     29.0536E-03
            5245            5376     27.5653E-03     29.0536E-03
            5244            5376     27.5653E-03     29.0536E-03
            5263            5376     27.5653E-03     29.0536E-03
            5263            5377     21.3523E-03     23.4290E-03
            5245            5377     21.3523E-03     23.4290E-03
            5264            5377     21.3523E-03     23.4290E-03
            5246            5377     21.3523E-03     23.4290E-03
            5266            5378     76.7320E-03     76.2620E-03
            5248            5378     76.7320E-03     76.2620E-03
            5265            5378     76.7320E-03     76.2620E-03
            5247            5378     76.7320E-03     76.2620E-03
            5266            5379     73.8485E-03     73.8484E-03
            5248            5379     73.8485E-03     73.8484E-03
            5267            5379     73.8485E-03     73.8484E-03
            5249            5379     73.8485E-03     73.8484E-03
            5267            5380     70.5783E-03     70.8140E-03
            5250            5380     70.5783E-03     70.8140E-03
            5268            5380     70.5783E-03     70.8140E-03
            5249            5380     70.5783E-03     70.8140E-03
            5268            5381     67.3461E-03     67.6716E-03
            5250            5381     67.3461E-03     67.6716E-03
            5251            5381     67.3461E-03     67.6716E-03
            5269            5381     67.3461E-03     67.6716E-03
            5252            5382     63.9455E-03     64.4400E-03
            5269            5382     63.9455E-03     64.4400E-03
            5251            5382     63.9455E-03     64.4400E-03
            5270            5382     63.9455E-03     64.4400E-03
            5270            5383     60.6126E-03     61.2438E-03
            5253            5383     60.6126E-03     61.2438E-03
            5252            5383     60.6126E-03     61.2438E-03
            5271            5383     60.6126E-03     61.2438E-03
            5253            5384     57.3058E-03     58.0431E-03
            5271            5384     57.3058E-03     58.0431E-03
            5254            5384     57.3058E-03     58.0431E-03
            5272            5384     57.3058E-03     58.0431E-03
            5272            5385     54.0016E-03     54.8602E-03
            5254            5385     54.0016E-03     54.8602E-03
            5273            5385     54.0016E-03     54.8602E-03
            5255            5385     54.0016E-03     54.8602E-03
            5273            5386     50.7147E-03     51.6738E-03
            5274            5386     50.7147E-03     51.6738E-03
            5256            5386     50.7147E-03     51.6738E-03
            5255            5386     50.7147E-03     51.6738E-03
            5275            5387     47.4053E-03     48.4809E-03
            5257            5387     47.4053E-03     48.4809E-03
            5274            5387     47.4053E-03     48.4809E-03
            5256            5387     47.4053E-03     48.4809E-03
            5276            5388     44.0908E-03     45.2741E-03
            5257            5388     44.0908E-03     45.2741E-03
            5275            5388     44.0908E-03     45.2741E-03
            5258            5388     44.0908E-03     45.2741E-03
            5277            5389     40.7263E-03     42.0296E-03
            5276            5389     40.7263E-03     42.0296E-03
            5259            5389     40.7263E-03     42.0296E-03
            5258            5389     40.7263E-03     42.0296E-03
            5260            5390     37.2999E-03     38.7107E-03
            5259            5390     37.2999E-03     38.7107E-03
            5277            5390     37.2999E-03     38.7107E-03
            5278            5390     37.2999E-03     38.7107E-03
            5260            5391     33.6901E-03     35.2040E-03
            5261            5391     33.6901E-03     35.2040E-03
            5278            5391     33.6901E-03     35.2040E-03
            5279            5391     33.6901E-03     35.2040E-03
            5262            5392     29.6776E-03     31.1960E-03
            5261            5392     29.6776E-03     31.1960E-03
            5280            5392     29.6776E-03     31.1960E-03
            5279            5392     29.6776E-03     31.1960E-03
            5280            5393     24.9904E-03     26.3891E-03
            5263            5393     24.9904E-03     26.3891E-03
            5262            5393     24.9904E-03     26.3891E-03
            5281            5393     24.9904E-03     26.3891E-03
            5281            5394     18.8697E-03     20.3025E-03
            5282            5394     18.8697E-03     20.3025E-03
            5263            5394     18.8697E-03     20.3025E-03
            5264            5394     18.8697E-03     20.3025E-03
            5757            5777     732.785E-06     786.443E-06
            5739            5777     732.785E-06     786.443E-06
            5758            5777     732.785E-06     786.443E-06
            5740            5777     732.785E-06     786.443E-06
            5740            5778     553.762E-06     615.667E-06
            5758            5778     553.762E-06     615.667E-06
            5759            5778     553.762E-06     615.667E-06
            5741            5778     553.762E-06     615.667E-06
            5759            5779     493.118E-06     553.844E-06
            5741            5779     493.118E-06     553.844E-06
            5760            5779     493.118E-06     553.844E-06
            5742            5779     493.118E-06     553.844E-06
            5761            5780     477.633E-06     535.462E-06
            5760            5780     477.633E-06     535.462E-06
            5743            5780     477.633E-06     535.462E-06
            5742            5780     477.633E-06     535.462E-06
            5761            5781     465.902E-06     520.540E-06
            5762            5781     465.902E-06     520.540E-06
            5743            5781     465.902E-06     520.540E-06
            5744            5781     465.902E-06     520.540E-06
            5745            5782     454.892E-06     507.606E-06
            5744            5782     454.892E-06     507.606E-06
            5763            5782     454.892E-06     507.606E-06
            5762            5782     454.892E-06     507.606E-06
            5763            5783     442.669E-06     493.513E-06
            5746            5783     442.669E-06     493.513E-06
            5764            5783     442.669E-06     493.513E-06
            5745            5783     442.669E-06     493.513E-06
            5746            5784     431.341E-06     480.134E-06
            5764            5784     431.341E-06     480.134E-06
            5747            5784     431.341E-06     480.134E-06
            5765            5784     431.341E-06     480.134E-06
            5748            5785     420.495E-06     466.834E-06
            5747            5785     420.495E-06     466.834E-06
            5765            5785     420.495E-06     466.834E-06
            5766            5785     420.495E-06     466.834E-06
            5749            5786     411.244E-06     454.623E-06
            5766            5786     411.244E-06     454.623E-06
            5767            5786     411.244E-06     454.623E-06
            5748            5786     411.244E-06     454.623E-06
            5768            5787     403.207E-06     443.226E-06
            5749            5787     403.207E-06     443.226E-06
            5750            5787     403.207E-06     443.226E-06
            5767            5787     403.207E-06     443.226E-06
            5751            5788     396.990E-06     432.831E-06
            5768            5788     396.990E-06     432.831E-06
            5769            5788     396.990E-06     432.831E-06
            5750            5788     396.990E-06     432.831E-06
            5770            5789     392.106E-06     423.583E-06
            5751            5789     392.106E-06     423.583E-06
            5752            5789     392.106E-06     423.583E-06
            5769            5789     392.106E-06     423.583E-06
            5753            5790     389.235E-06     414.953E-06
            5771            5790     389.235E-06     414.953E-06
            5770            5790     389.235E-06     414.953E-06
            5752            5790     389.235E-06     414.953E-06
            5771            5791     386.835E-06     407.068E-06
            5753            5791     386.835E-06     407.068E-06
            5772            5791     386.835E-06     407.068E-06
            5754            5791     386.835E-06     407.068E-06
            5772            5792     382.117E-06     406.036E-06
            5755            5792     382.117E-06     406.036E-06
            5754            5792     382.117E-06     406.036E-06
            5773            5792     382.117E-06     406.036E-06
            5755            5793     380.773E-06     406.420E-06
            5773            5793     380.773E-06     406.420E-06
            5774            5793     380.773E-06     406.420E-06
            5756            5793     380.773E-06     406.420E-06
            5775            5794     602.476E-06     608.714E-06
            5758            5794     602.476E-06     608.714E-06
            5776            5794     602.476E-06     608.714E-06
            5757            5794     602.476E-06     608.714E-06
            5776            5795     547.951E-06     573.507E-06
            5759            5795     547.951E-06     573.507E-06
            5777            5795     547.951E-06     573.507E-06
            5758            5795     547.951E-06     573.507E-06
            5778            5796     521.868E-06     556.249E-06
            5759            5796     521.868E-06     556.249E-06
            5760            5796     521.868E-06     556.249E-06
            5777            5796     521.868E-06     556.249E-06
            5779            5797     510.620E-06     544.498E-06
            5761            5797     510.620E-06     544.498E-06
            5778            5797     510.620E-06     544.498E-06
            5760            5797     510.620E-06     544.498E-06
            5762            5798     497.258E-06     527.988E-06
            5779            5798     497.258E-06     527.988E-06
            5780            5798     497.258E-06     527.988E-06
            5761            5798     497.258E-06     527.988E-06
            5763            5799     480.072E-06     510.812E-06
            5780            5799     480.072E-06     510.812E-06
            5781            5799     480.072E-06     510.812E-06
            5762            5799     480.072E-06     510.812E-06
            5782            5800     465.800E-06     495.071E-06
            5781            5800     465.800E-06     495.071E-06
            5764            5800     465.800E-06     495.071E-06
            5763            5800     465.800E-06     495.071E-06
            5782            5801     452.087E-06     480.504E-06
            5783            5801     452.087E-06     480.504E-06
            5764            5801     452.087E-06     480.504E-06
            5765            5801     452.087E-06     480.504E-06
            5766            5802     440.713E-06     467.754E-06
            5784            5802     440.713E-06     467.754E-06
            5783            5802     440.713E-06     467.754E-06
            5765            5802     440.713E-06     467.754E-06
            5767            5803     430.583E-06     456.083E-06
            5784            5803     430.583E-06     456.083E-06
            5785            5803     430.583E-06     456.083E-06
            5766            5803     430.583E-06     456.083E-06
            5768            5804     422.167E-06     445.925E-06
            5767            5804     422.167E-06     445.925E-06
            5786            5804     422.167E-06     445.925E-06
            5785            5804     422.167E-06     445.925E-06
            5787            5805     415.219E-06     436.746E-06
            5769            5805     415.219E-06     436.746E-06
            5768            5805     415.219E-06     436.746E-06
            5786            5805     415.219E-06     436.746E-06
            5788            5806     409.557E-06     429.186E-06
            5769            5806     409.557E-06     429.186E-06
            5770            5806     409.557E-06     429.186E-06
            5787            5806     409.557E-06     429.186E-06
            5788            5807     405.979E-06     422.518E-06
            5771            5807     405.979E-06     422.518E-06
            5789            5807     405.979E-06     422.518E-06
            5770            5807     405.979E-06     422.518E-06
            5772            5808     404.368E-06     416.815E-06
            5771            5808     404.368E-06     416.815E-06
            5789            5808     404.368E-06     416.815E-06
            5790            5808     404.368E-06     416.815E-06
            5773            5809     406.296E-06     410.057E-06
            5772            5809     406.296E-06     410.057E-06
            5791            5809     406.296E-06     410.057E-06
            5790            5809     406.296E-06     410.057E-06
            5791            5810     419.333E-06     396.855E-06
            5773            5810     419.333E-06     396.855E-06
            5792            5810     419.333E-06     396.855E-06
            5774            5810     419.333E-06     396.855E-06
            5794            5811     417.907E-06     432.588E-06
            5775            5811     417.907E-06     432.588E-06
            5793            5811     417.907E-06     432.588E-06
            5776            5811     417.907E-06     432.588E-06
            5776            5812     467.916E-06     492.372E-06
            5794            5812     467.916E-06     492.372E-06
            5795            5812     467.916E-06     492.372E-06
            5777            5812     467.916E-06     492.372E-06
            5777            5813     529.949E-06     542.752E-06
            5795            5813     529.949E-06     542.752E-06
            5796            5813     529.949E-06     542.752E-06
            5778            5813     529.949E-06     542.752E-06
            5779            5814     534.192E-06     540.864E-06
            5778            5814     534.192E-06     540.864E-06
            5797            5814     534.192E-06     540.864E-06
            5796            5814     534.192E-06     540.864E-06
            5780            5815     518.503E-06     526.904E-06
            5797            5815     518.503E-06     526.904E-06
            5798            5815     518.503E-06     526.904E-06
            5779            5815     518.503E-06     526.904E-06
            5780            5816     502.334E-06     509.361E-06
            5781            5816     502.334E-06     509.361E-06
            5799            5816     502.334E-06     509.361E-06
            5798            5816     502.334E-06     509.361E-06
            5781            5817     485.642E-06     493.326E-06
            5799            5817     485.642E-06     493.326E-06
            5800            5817     485.642E-06     493.326E-06
            5782            5817     485.642E-06     493.326E-06
            5800            5818     472.281E-06     479.588E-06
            5801            5818     472.281E-06     479.588E-06
            5783            5818     472.281E-06     479.588E-06
            5782            5818     472.281E-06     479.588E-06
            5802            5819     460.349E-06     467.658E-06
            5801            5819     460.349E-06     467.658E-06
            5783            5819     460.349E-06     467.658E-06
            5784            5819     460.349E-06     467.658E-06
            5784            5820     450.414E-06     457.606E-06
            5785            5820     450.414E-06     457.606E-06
            5802            5820     450.414E-06     457.606E-06
            5803            5820     450.414E-06     457.606E-06
            5804            5821     441.777E-06     448.661E-06
            5785            5821     441.777E-06     448.661E-06
            5803            5821     441.777E-06     448.661E-06
            5786            5821     441.777E-06     448.661E-06
            5787            5822     434.306E-06     441.408E-06
            5804            5822     434.306E-06     441.408E-06
            5805            5822     434.306E-06     441.408E-06
            5786            5822     434.306E-06     441.408E-06
            5806            5823     428.457E-06     435.010E-06
            5787            5823     428.457E-06     435.010E-06
            5788            5823     428.457E-06     435.010E-06
            5805            5823     428.457E-06     435.010E-06
            5788            5824     423.275E-06     430.809E-06
            5806            5824     423.275E-06     430.809E-06
            5807            5824     423.275E-06     430.809E-06
            5789            5824     423.275E-06     430.809E-06
            5807            5825     421.835E-06     427.475E-06
            5789            5825     421.835E-06     427.475E-06
            5808            5825     421.835E-06     427.475E-06
            5790            5825     421.835E-06     427.475E-06
            5809            5826     431.378E-06     414.556E-06
            5808            5826     431.378E-06     414.556E-06
            5790            5826     431.378E-06     414.556E-06
            5791            5826     431.378E-06     414.556E-06
            5810            5827     439.862E-06     395.764E-06
            5791            5827     439.862E-06     395.764E-06
            5792            5827     439.862E-06     395.764E-06
            5809            5827     439.862E-06     395.764E-06
            5794            5828     278.635E-06     274.808E-06
            5811            5828     278.635E-06     274.808E-06
            5812            5828     278.635E-06     274.808E-06
            5793            5828     278.635E-06     274.808E-06
            5795            5829     409.248E-06     410.428E-06
            5812            5829     409.248E-06     410.428E-06
            5794            5829     409.248E-06     410.428E-06
            5813            5829     409.248E-06     410.428E-06
            5813            5830     511.618E-06     495.393E-06
            5796            5830     511.618E-06     495.393E-06
            5814            5830     511.618E-06     495.393E-06
            5795            5830     511.618E-06     495.393E-06
            5796            5831     532.332E-06     513.944E-06
            5797            5831     532.332E-06     513.944E-06
            5814            5831     532.332E-06     513.944E-06
            5815            5831     532.332E-06     513.944E-06
            5797            5832     527.202E-06     509.346E-06
            5816            5832     527.202E-06     509.346E-06
            5815            5832     527.202E-06     509.346E-06
            5798            5832     527.202E-06     509.346E-06
            5799            5833     514.905E-06     498.533E-06
            5816            5833     514.905E-06     498.533E-06
            5817            5833     514.905E-06     498.533E-06
            5798            5833     514.905E-06     498.533E-06
            5800            5834     502.386E-06     487.040E-06
            5817            5834     502.386E-06     487.040E-06
            5799            5834     502.386E-06     487.040E-06
            5818            5834     502.386E-06     487.040E-06
            5819            5835     490.543E-06     476.428E-06
            5800            5835     490.543E-06     476.428E-06
            5818            5835     490.543E-06     476.428E-06
            5801            5835     490.543E-06     476.428E-06
            5801            5836     480.163E-06     467.309E-06
            5820            5836     480.163E-06     467.309E-06
            5819            5836     480.163E-06     467.309E-06
            5802            5836     480.163E-06     467.309E-06
            5802            5837     470.726E-06     459.215E-06
            5803            5837     470.726E-06     459.215E-06
            5820            5837     470.726E-06     459.215E-06
            5821            5837     470.726E-06     459.215E-06
            5803            5838     462.326E-06     452.412E-06
            5821            5838     462.326E-06     452.412E-06
            5804            5838     462.326E-06     452.412E-06
            5822            5838     462.326E-06     452.412E-06
            5822            5839     454.905E-06     446.445E-06
            5804            5839     454.905E-06     446.445E-06
            5805            5839     454.905E-06     446.445E-06
            5823            5839     454.905E-06     446.445E-06
            5823            5840     448.164E-06     442.065E-06
            5805            5840     448.164E-06     442.065E-06
            5806            5840     448.164E-06     442.065E-06
            5824            5840     448.164E-06     442.065E-06
            5807            5841     442.819E-06     438.590E-06
            5824            5841     442.819E-06     438.590E-06
            5806            5841     442.819E-06     438.590E-06
            5825            5841     442.819E-06     438.590E-06
            5807            5842     438.266E-06     436.810E-06
            5826            5842     438.266E-06     436.810E-06
            5825            5842     438.266E-06     436.810E-06
            5808            5842     438.266E-06     436.810E-06
            5827            5843     436.333E-06     436.524E-06
            5808            5843     436.333E-06     436.524E-06
            5826            5843     436.333E-06     436.524E-06
            5809            5843     436.333E-06     436.524E-06
            5828            5844     447.573E-06     427.544E-06
            5827            5844     447.573E-06     427.544E-06
            5809            5844     447.573E-06     427.544E-06
            5810            5844     447.573E-06     427.544E-06
            5812            5845     228.289E-06     244.394E-06
            5811            5845     228.289E-06     244.394E-06
            5829            5845     228.289E-06     244.394E-06
            5830            5845     228.289E-06     244.394E-06
            5813            5846     377.142E-06     324.731E-06
            5812            5846     377.142E-06     324.731E-06
            5831            5846     377.142E-06     324.731E-06
            5830            5846     377.142E-06     324.731E-06
            5814            5847     470.192E-06     420.545E-06
            5813            5847     470.192E-06     420.545E-06
            5831            5847     470.192E-06     420.545E-06
            5832            5847     470.192E-06     420.545E-06
            5815            5848     510.617E-06     465.296E-06
            5814            5848     510.617E-06     465.296E-06
            5833            5848     510.617E-06     465.296E-06
            5832            5848     510.617E-06     465.296E-06
            5833            5849     523.578E-06     479.506E-06
            5834            5849     523.578E-06     479.506E-06
            5815            5849     523.578E-06     479.506E-06
            5816            5849     523.578E-06     479.506E-06
            5835            5850     522.246E-06     481.703E-06
            5816            5850     522.246E-06     481.703E-06
            5834            5850     522.246E-06     481.703E-06
            5817            5850     522.246E-06     481.703E-06
            5835            5851     516.661E-06     478.196E-06
            5817            5851     516.661E-06     478.196E-06
            5818            5851     516.661E-06     478.196E-06
            5836            5851     516.661E-06     478.196E-06
            5819            5852     508.747E-06     473.062E-06
            5836            5852     508.747E-06     473.062E-06
            5818            5852     508.747E-06     473.062E-06
            5837            5852     508.747E-06     473.062E-06
            5820            5853     500.398E-06     467.360E-06
            5819            5853     500.398E-06     467.360E-06
            5838            5853     500.398E-06     467.360E-06
            5837            5853     500.398E-06     467.360E-06
            5820            5854     492.096E-06     461.922E-06
            5838            5854     492.096E-06     461.922E-06
            5839            5854     492.096E-06     461.922E-06
            5821            5854     492.096E-06     461.922E-06
            5839            5855     484.042E-06     457.078E-06
            5821            5855     484.042E-06     457.078E-06
            5822            5855     484.042E-06     457.078E-06
            5840            5855     484.042E-06     457.078E-06
            5823            5856     476.596E-06     452.875E-06
            5841            5856     476.596E-06     452.875E-06
            5822            5856     476.596E-06     452.875E-06
            5840            5856     476.596E-06     452.875E-06
            5824            5857     469.454E-06     449.731E-06
            5841            5857     469.454E-06     449.731E-06
            5823            5857     469.454E-06     449.731E-06
            5842            5857     469.454E-06     449.731E-06
            5843            5858     463.271E-06     447.282E-06
            5825            5858     463.271E-06     447.282E-06
            5824            5858     463.271E-06     447.282E-06
            5842            5858     463.271E-06     447.282E-06
            5844            5859     456.154E-06     446.259E-06
            5825            5859     456.154E-06     446.259E-06
            5843            5859     456.154E-06     446.259E-06
            5826            5859     456.154E-06     446.259E-06
            5844            5860     445.597E-06     453.118E-06
            5827            5860     445.597E-06     453.118E-06
            5826            5860     445.597E-06     453.118E-06
            5845            5860     445.597E-06     453.118E-06
            5846            5861     437.348E-06     464.318E-06
            5827            5861     437.348E-06     464.318E-06
            5845            5861     437.348E-06     464.318E-06
            5828            5861     437.348E-06     464.318E-06


  Minimum                            89.9879E-06     206.395E-06
      At Element                             856            5811
            Node                             308             197

  Maximum                            197.054E-03     197.433E-03
      At Element                            2421            2421
            Node                             521             521

           Total                         255.961         260.333


